GdAuGe; prepared_inputs from GdAuGe.vasp
1.0
   4.4279899596999996    0.0000000000000000    0.0000000000000000
  -2.2139949798999998    3.8347517928000001    0.0000000000000000
   0.0000000000000000    0.0000000000000000    7.4176001548999997
Gd Au Ge
2 2 2
direct
   0.0000000000000000    0.0000000000000000    0.0000000000000000 Gd
   0.0000000000000000    0.0000000000000000    0.5000000000000000 Gd
   0.6666666790000000    0.3333333590000000    0.7796800360000000 Au
   0.3333333270000000    0.6666666550000000    0.2796800040000000 Au
   0.6666666790000000    0.3333333590000000    0.2113999990000000 Ge
   0.3333333270000000    0.6666666550000000    0.7114000630000000 Ge

