gadolinium gold germanide (1/1/1)
1.0
        4.4279899597         0.0000000000         0.0000000000
       -2.2139949799         3.8347517928         0.0000000000
        0.0000000000         0.0000000000         7.4176001549
   Gd   Au   Ge
    2    2    2
Direct
     0.000000000         0.000000000         0.000000000
     0.000000000         0.000000000         0.500000000
     0.666666679         0.333333359         0.779680036
     0.333333327         0.666666655         0.279680004
     0.666666679         0.333333359         0.211399999
     0.333333327         0.666666655         0.711400063

