AlterSeeK-Path 2D Case 06 | square-4m | Mn4O6
1.0
   6.2427974108680466    0.0000000000000000    0.0000000000000000
   0.0000000000000000    6.2427974108680466    0.0000000000000000
   0.0000000000000000    0.0000000000000000   23.9764321199999983
Mn O
4 6
direct
   0.8727678699999999    0.6964506299999998    0.5414618832787370 Mn
   0.6964506299999998    0.1272321300000001    0.5414618832787370 Mn
   0.3035493700000000    0.8727678699999999    0.5414618832787370 Mn
   0.1272321300000001    0.3035493700000000    0.5414618832787370 Mn
   0.8176550800000000    0.3958003899999999    0.4585381167212631 O
   0.6041996100000000    0.8176550800000000    0.4585381167212631 O
   0.1823449200000000    0.6041996100000000    0.4585381167212631 O
   0.3958003899999999    0.1823449200000000    0.4585381167212631 O
   0.4999999999999999    0.4999999999999999    0.5414618832787370 O
   0.0000000000000000    0.0000000000000000    0.4585381167212631 O
