  PAW_PBE Mn_pv 02Aug2007                
   13.0000000000000     
 parameters from PSCTR are:
   SHA256 =  c79df11ab18a0e3347296df6ded47bb5f18b2e4fbd621d0b5280d2eae24c30a0 Mn_pv/POTCAR
   COPYR  = (c) Copyright 02Aug2007 Georg Kresse
   COPYR  = This file is part of the software VASP. Any use, copying, and all other rights are regulated by the VASP license agreement.
   COPYR  = If you do not have a valid VASP license, you may not use, copy or distribute this file.
   VRHFIN =Mn: 3p4s3d
   LEXCH  = PE
   EATOM  =  2025.2664 eV,  148.8529 Ry

   TITEL  = PAW_PBE Mn_pv 02Aug2007
   LULTRA =        F    use ultrasoft PP ?
   IUNSCR =        1    unscreen: 0-lin 1-nonlin 2-no
   RPACOR =    2.080    partial core radius
   POMASS =   54.938; ZVAL   =   13.000    mass and valenz
   RCORE  =    2.300    outmost cutoff radius
   RWIGS  =    2.500; RWIGS  =    1.323    wigner-seitz radius (au A)
   ENMAX  =  269.864; ENMIN  =  202.398 eV
   ICORE  =        3    local potential
   LCOR   =        T    correct aug charges
   LPAW   =        T    paw PP
   EAUG   =  569.085
   DEXC   =    0.000
   RMAX   =    2.343    core radius for proj-oper
   RAUG   =    1.300    factor for augmentation sphere
   RDEP   =    2.338    radius for radial grids
   RDEPT  =    1.798    core radius for aug-charge
 
   Atomic configuration
    8 entries
     n  l   j            E        occ.
     1  0  0.50     -6424.8287   2.0000
     2  0  0.50      -739.1154   2.0000
     2  1  1.50      -625.3949   6.0000
     3  0  0.50       -81.6100   2.0000
     3  1  1.50       -50.4667   6.0000
     3  2  2.50        -3.3745   6.0000
     4  0  0.50        -4.1331   1.0000
     4  3  2.50        -1.3606   0.0000
   Description
     l       E           TYP  RCUT    TYP  RCUT
     1    -50.4666628     23  2.000
     1     -1.3605826     23  2.000
     2     -3.3744729     23  2.300
     2     -4.7350555     23  2.300
     0     -4.1331431     23  2.300
     0      7.6656591     23  2.300
     3      9.5240782     23  2.300
   Error from kinetic energy argument (eV)
   NDATA  =      100
   STEP   =   20.000   1.050
  193.      191.      190.      187.      186.      183.      180.      178.
  175.      172.      170.      166.      162.      158.      154.      149.
  145.      140.      136.      128.      124.      119.      111.      106.
  101.      94.2      87.0      82.4      75.5      68.9      62.5      56.5
  50.7      45.3      40.3      35.6      29.9      26.0      21.4      18.3
  14.8      11.7      9.19      7.09      5.37      4.00      2.92      1.91
  1.33     0.811     0.478     0.307     0.176     0.107     0.719E-01 0.629E-01
 0.611E-01 0.603E-01 0.571E-01 0.504E-01 0.415E-01 0.320E-01 0.232E-01 0.153E-01
 0.106E-01 0.751E-02 0.615E-02 0.572E-02 0.553E-02 0.520E-02 0.450E-02 0.358E-02
 0.267E-02 0.193E-02 0.140E-02 0.116E-02 0.105E-02 0.983E-03 0.876E-03 0.740E-03
 0.576E-03 0.438E-03 0.345E-03 0.289E-03 0.257E-03 0.229E-03 0.197E-03 0.160E-03
 0.127E-03 0.102E-03 0.849E-04 0.756E-04 0.667E-04 0.570E-04 0.451E-04 0.353E-04
 0.301E-04 0.281E-04 0.246E-04 0.194E-04
END of PSCTR-controll parameters
 local part
   81.2582175088937     
  0.92759288E+02  0.92750042E+02  0.92732773E+02  0.92704015E+02  0.92663801E+02
  0.92612171E+02  0.92549170E+02  0.92474837E+02  0.92389207E+02  0.92292305E+02
  0.92184143E+02  0.92064719E+02  0.91934021E+02  0.91792024E+02  0.91638696E+02
  0.91474000E+02  0.91297893E+02  0.91110334E+02  0.90911280E+02  0.90700688E+02
  0.90478515E+02  0.90244714E+02  0.89999234E+02  0.89742018E+02  0.89473001E+02
  0.89192111E+02  0.88899265E+02  0.88594372E+02  0.88277331E+02  0.87948035E+02
  0.87606371E+02  0.87252219E+02  0.86885457E+02  0.86505956E+02  0.86113589E+02
  0.85708221E+02  0.85289720E+02  0.84857950E+02  0.84412773E+02  0.83954054E+02
  0.83481658E+02  0.82995454E+02  0.82495315E+02  0.81981120E+02  0.81452758E+02
  0.80910128E+02  0.80353140E+02  0.79781717E+02  0.79195800E+02  0.78595342E+02
  0.77980318E+02  0.77350718E+02  0.76706558E+02  0.76047871E+02  0.75374719E+02
  0.74687187E+02  0.73985387E+02  0.73269463E+02  0.72539586E+02  0.71795960E+02
  0.71038821E+02  0.70268438E+02  0.69485114E+02  0.68689186E+02  0.67881024E+02
  0.67061036E+02  0.66229660E+02  0.65387374E+02  0.64534685E+02  0.63672139E+02
  0.62800312E+02  0.61919817E+02  0.61031295E+02  0.60135419E+02  0.59232892E+02
  0.58324445E+02  0.57410833E+02  0.56492835E+02  0.55571254E+02  0.54646911E+02
  0.53720644E+02  0.52793306E+02  0.51865764E+02  0.50938893E+02  0.50013578E+02
  0.49090705E+02  0.48171164E+02  0.47255841E+02  0.46345620E+02  0.45441375E+02
  0.44543971E+02  0.43654257E+02  0.42773068E+02  0.41901216E+02  0.41039494E+02
  0.40188668E+02  0.39349477E+02  0.38522629E+02  0.37708800E+02  0.36908630E+02
  0.36122722E+02  0.35351640E+02  0.34595906E+02  0.33856000E+02  0.33132357E+02
  0.32425366E+02  0.31735369E+02  0.31062662E+02  0.30407491E+02  0.29770055E+02
  0.29150503E+02  0.28548938E+02  0.27965410E+02  0.27399925E+02  0.26852441E+02
  0.26322866E+02  0.25811067E+02  0.25316864E+02  0.24840036E+02  0.24380319E+02
  0.23937411E+02  0.23510974E+02  0.23100633E+02  0.22705982E+02  0.22326583E+02
  0.21961971E+02  0.21611656E+02  0.21275126E+02  0.20951847E+02  0.20641269E+02
  0.20342829E+02  0.20055950E+02  0.19780047E+02  0.19514532E+02  0.19258809E+02
  0.19012287E+02  0.18774373E+02  0.18544483E+02  0.18322037E+02  0.18106468E+02
  0.17897220E+02  0.17693749E+02  0.17495532E+02  0.17302060E+02  0.17112848E+02
  0.16927431E+02  0.16745366E+02  0.16566237E+02  0.16389652E+02  0.16215246E+02
  0.16042683E+02  0.15871651E+02  0.15701872E+02  0.15533090E+02  0.15365083E+02
  0.15197655E+02  0.15030638E+02  0.14863892E+02  0.14697305E+02  0.14530791E+02
  0.14364290E+02  0.14197766E+02  0.14031206E+02  0.13864622E+02  0.13698044E+02
  0.13531522E+02  0.13365127E+02  0.13198943E+02  0.13033071E+02  0.12867624E+02
  0.12702728E+02  0.12538518E+02  0.12375137E+02  0.12212738E+02  0.12051474E+02
  0.11891505E+02  0.11732992E+02  0.11576095E+02  0.11420974E+02  0.11267786E+02
  0.11116684E+02  0.10967815E+02  0.10821319E+02  0.10677331E+02  0.10535974E+02
  0.10397363E+02  0.10261603E+02  0.10128788E+02  0.99989990E+01  0.98723067E+01
  0.97487681E+01  0.96284277E+01  0.95113171E+01  0.93974548E+01  0.92868465E+01
  0.91794851E+01  0.90753507E+01  0.89744115E+01  0.88766240E+01  0.87819331E+01
  0.86902733E+01  0.86015689E+01  0.85157349E+01  0.84326775E+01  0.83522952E+01
  0.82744792E+01  0.81991149E+01  0.81260819E+01  0.80552559E+01  0.79865088E+01
  0.79197102E+01  0.78547278E+01  0.77914287E+01  0.77296801E+01  0.76693502E+01
  0.76103090E+01  0.75524288E+01  0.74955853E+01  0.74396582E+01  0.73845317E+01
  0.73300953E+01  0.72762441E+01  0.72228794E+01  0.71699093E+01  0.71172487E+01
  0.70648200E+01  0.70125530E+01  0.69603851E+01  0.69082614E+01  0.68561350E+01
  0.68039666E+01  0.67517244E+01  0.66993845E+01  0.66469301E+01  0.65943515E+01
  0.65416459E+01  0.64888173E+01  0.64358754E+01  0.63828360E+01  0.63297200E+01
  0.62765535E+01  0.62233667E+01  0.61701936E+01  0.61170718E+01  0.60640417E+01
  0.60111459E+01  0.59584290E+01  0.59059367E+01  0.58537158E+01  0.58018132E+01
  0.57502758E+01  0.56991499E+01  0.56484807E+01  0.55983121E+01  0.55486859E+01
  0.54996421E+01  0.54512179E+01  0.54034477E+01  0.53563631E+01  0.53099923E+01
  0.52643603E+01  0.52194883E+01  0.51753941E+01  0.51320917E+01  0.50895916E+01
  0.50479004E+01  0.50070209E+01  0.49669526E+01  0.49276913E+01  0.48892293E+01
  0.48515559E+01  0.48146572E+01  0.47785165E+01  0.47431145E+01  0.47084296E+01
  0.46744378E+01  0.46411136E+01  0.46084296E+01  0.45763574E+01  0.45448671E+01
  0.45139283E+01  0.44835100E+01  0.44535810E+01  0.44241100E+01  0.43950660E+01
  0.43664186E+01  0.43381379E+01  0.43101952E+01  0.42825628E+01  0.42552144E+01
  0.42281252E+01  0.42012720E+01  0.41746332E+01  0.41481891E+01  0.41219220E+01
  0.40958158E+01  0.40698568E+01  0.40440330E+01  0.40183346E+01  0.39927535E+01
  0.39672838E+01  0.39419214E+01  0.39166638E+01  0.38915105E+01  0.38664624E+01
  0.38415219E+01  0.38166926E+01  0.37919795E+01  0.37673885E+01  0.37429264E+01
  0.37186008E+01  0.36944198E+01  0.36703920E+01  0.36465265E+01  0.36228321E+01
  0.35993181E+01  0.35759931E+01  0.35528660E+01  0.35299447E+01  0.35072370E+01
  0.34847499E+01  0.34624895E+01  0.34404614E+01  0.34186700E+01  0.33971190E+01
  0.33758111E+01  0.33547477E+01  0.33339297E+01  0.33133566E+01  0.32930269E+01
  0.32729382E+01  0.32530871E+01  0.32334693E+01  0.32140796E+01  0.31949119E+01
  0.31759594E+01  0.31572149E+01  0.31386703E+01  0.31203172E+01  0.31021469E+01
  0.30841504E+01  0.30663185E+01  0.30486420E+01  0.30311118E+01  0.30137189E+01
  0.29964543E+01  0.29793098E+01  0.29622773E+01  0.29453493E+01  0.29285190E+01
  0.29117801E+01  0.28951272E+01  0.28785557E+01  0.28620618E+01  0.28456425E+01
  0.28292958E+01  0.28130206E+01  0.27968166E+01  0.27806844E+01  0.27646258E+01
  0.27486429E+01  0.27327392E+01  0.27169185E+01  0.27011857E+01  0.26855461E+01
  0.26700058E+01  0.26545714E+01  0.26392498E+01  0.26240483E+01  0.26089744E+01
  0.25940360E+01  0.25792408E+01  0.25645965E+01  0.25501107E+01  0.25357908E+01
  0.25216438E+01  0.25076764E+01  0.24938947E+01  0.24803043E+01  0.24669101E+01
  0.24537163E+01  0.24407262E+01  0.24279423E+01  0.24153662E+01  0.24029986E+01
  0.23908391E+01  0.23788864E+01  0.23671381E+01  0.23555909E+01  0.23442405E+01
  0.23330815E+01  0.23221078E+01  0.23113122E+01  0.23006866E+01  0.22902222E+01
  0.22799095E+01  0.22697382E+01  0.22596973E+01  0.22497755E+01  0.22399611E+01
  0.22302417E+01  0.22206051E+01  0.22110389E+01  0.22015303E+01  0.21920671E+01
  0.21826369E+01  0.21732277E+01  0.21638279E+01  0.21544264E+01  0.21450124E+01
  0.21355762E+01  0.21261084E+01  0.21166006E+01  0.21070453E+01  0.20974359E+01
  0.20877668E+01  0.20780336E+01  0.20682328E+01  0.20583621E+01  0.20484203E+01
  0.20384073E+01  0.20283242E+01  0.20181732E+01  0.20079576E+01  0.19976818E+01
  0.19873512E+01  0.19769721E+01  0.19665520E+01  0.19560991E+01  0.19456223E+01
  0.19351316E+01  0.19246372E+01  0.19141502E+01  0.19036818E+01  0.18932440E+01
  0.18828487E+01  0.18725081E+01  0.18622343E+01  0.18520397E+01  0.18419361E+01
  0.18319355E+01  0.18220493E+01  0.18122884E+01  0.18026635E+01  0.17931843E+01
  0.17838599E+01  0.17746989E+01  0.17657086E+01  0.17568958E+01  0.17482660E+01
  0.17398239E+01  0.17315731E+01  0.17235161E+01  0.17156544E+01  0.17079884E+01
  0.17005173E+01  0.16932392E+01  0.16861514E+01  0.16792498E+01  0.16725294E+01
  0.16659843E+01  0.16596076E+01  0.16533914E+01  0.16473273E+01  0.16414059E+01
  0.16356172E+01  0.16299507E+01  0.16243954E+01  0.16189397E+01  0.16135720E+01
  0.16082801E+01  0.16030519E+01  0.15978752E+01  0.15927379E+01  0.15876278E+01
  0.15825331E+01  0.15774424E+01  0.15723444E+01  0.15672287E+01  0.15620850E+01
  0.15569039E+01  0.15516767E+01  0.15463952E+01  0.15410523E+01  0.15356414E+01
  0.15301572E+01  0.15245947E+01  0.15189505E+01  0.15132215E+01  0.15074060E+01
  0.15015031E+01  0.14955128E+01  0.14894360E+01  0.14832747E+01  0.14770316E+01
  0.14707102E+01  0.14643150E+01  0.14578510E+01  0.14513240E+01  0.14447405E+01
  0.14381076E+01  0.14314326E+01  0.14247236E+01  0.14179890E+01  0.14112374E+01
  0.14044776E+01  0.13977188E+01  0.13909700E+01  0.13842405E+01  0.13775391E+01
  0.13708749E+01  0.13642566E+01  0.13576926E+01  0.13511911E+01  0.13447597E+01
  0.13384057E+01  0.13321360E+01  0.13259568E+01  0.13198738E+01  0.13138921E+01
  0.13080161E+01  0.13022498E+01  0.12965961E+01  0.12910575E+01  0.12856358E+01
  0.12803319E+01  0.12751463E+01  0.12700786E+01  0.12651279E+01  0.12602925E+01
  0.12555703E+01  0.12509585E+01  0.12464536E+01  0.12420520E+01  0.12377493E+01
  0.12335407E+01  0.12294211E+01  0.12253852E+01  0.12214271E+01  0.12175410E+01
  0.12137206E+01  0.12099597E+01  0.12062521E+01  0.12025913E+01  0.11989710E+01
  0.11953849E+01  0.11918270E+01  0.11882912E+01  0.11847717E+01  0.11812630E+01
  0.11777597E+01  0.11742569E+01  0.11707498E+01  0.11672343E+01  0.11637062E+01
  0.11601621E+01  0.11565989E+01  0.11530138E+01  0.11494045E+01  0.11457691E+01
  0.11421062E+01  0.11384146E+01  0.11346938E+01  0.11309433E+01  0.11271634E+01
  0.11233544E+01  0.11195172E+01  0.11156529E+01  0.11117628E+01  0.11078488E+01
  0.11039126E+01  0.10999564E+01  0.10959826E+01  0.10919937E+01  0.10879921E+01
  0.10839807E+01  0.10799621E+01  0.10759392E+01  0.10719148E+01  0.10678916E+01
  0.10638725E+01  0.10598602E+01  0.10558574E+01  0.10518665E+01  0.10478901E+01
  0.10439303E+01  0.10399895E+01  0.10360695E+01  0.10321723E+01  0.10282994E+01
  0.10244525E+01  0.10206327E+01  0.10168413E+01  0.10130792E+01  0.10093473E+01
  0.10056462E+01  0.10019764E+01  0.99833837E+00  0.99473220E+00  0.99115801E+00
  0.98761579E+00  0.98410538E+00  0.98062658E+00  0.97717907E+00  0.97376249E+00
  0.97037645E+00  0.96702050E+00  0.96369418E+00  0.96039702E+00  0.95712855E+00
  0.95388831E+00  0.95067583E+00  0.94749071E+00  0.94433254E+00  0.94120098E+00
  0.93809570E+00  0.93501645E+00  0.93196302E+00  0.92893526E+00  0.92593305E+00
  0.92295636E+00  0.92000516E+00  0.91707949E+00  0.91417940E+00  0.91130497E+00
  0.90845631E+00  0.90563351E+00  0.90283667E+00  0.90006590E+00  0.89732127E+00
  0.89460282E+00  0.89191057E+00  0.88924449E+00  0.88660449E+00  0.88399041E+00
  0.88140201E+00  0.87883895E+00  0.87630082E+00  0.87378707E+00  0.87129708E+00
  0.86883010E+00  0.86638526E+00  0.86396159E+00  0.86155801E+00  0.85917331E+00
  0.85680620E+00  0.85445526E+00  0.85211897E+00  0.84979575E+00  0.84748387E+00
  0.84518158E+00  0.84288703E+00  0.84059831E+00  0.83831351E+00  0.83603064E+00
  0.83374775E+00  0.83146288E+00  0.82917410E+00  0.82687952E+00  0.82457730E+00
  0.82226568E+00  0.81994300E+00  0.81760768E+00  0.81525828E+00  0.81289349E+00
  0.81051215E+00  0.80811326E+00  0.80569601E+00  0.80325979E+00  0.80080418E+00
  0.79832898E+00  0.79583420E+00  0.79332008E+00  0.79078706E+00  0.78823584E+00
  0.78566731E+00  0.78308258E+00  0.78048299E+00  0.77787007E+00  0.77524558E+00
  0.77261144E+00  0.76996977E+00  0.76732285E+00  0.76467312E+00  0.76202315E+00
  0.75937561E+00  0.75673328E+00  0.75409901E+00  0.75147570E+00  0.74886626E+00
  0.74627361E+00  0.74370068E+00  0.74115033E+00  0.73862536E+00  0.73612850E+00
  0.73366238E+00  0.73122948E+00  0.72883215E+00  0.72647254E+00  0.72415264E+00
  0.72187420E+00  0.71963878E+00  0.71744765E+00  0.71530187E+00  0.71320222E+00
  0.71114922E+00  0.70914311E+00  0.70718385E+00  0.70527112E+00  0.70340434E+00
  0.70158262E+00  0.69980483E+00  0.69806955E+00  0.69637510E+00  0.69471956E+00
  0.69310077E+00  0.69151636E+00  0.68996375E+00  0.68844019E+00  0.68694277E+00
  0.68546844E+00  0.68401403E+00  0.68257630E+00  0.68115193E+00  0.67973755E+00
  0.67832978E+00  0.67692524E+00  0.67552060E+00  0.67411257E+00  0.67269794E+00
  0.67127362E+00  0.66983667E+00  0.66838426E+00  0.66691380E+00  0.66542283E+00
  0.66390916E+00  0.66237081E+00  0.66080602E+00  0.65921332E+00  0.65759148E+00
  0.65593954E+00  0.65425685E+00  0.65254301E+00  0.65079791E+00  0.64902176E+00
  0.64721501E+00  0.64537842E+00  0.64351301E+00  0.64162007E+00  0.63970112E+00
  0.63775793E+00  0.63579248E+00  0.63380695E+00  0.63180372E+00  0.62978531E+00
  0.62775440E+00  0.62571378E+00  0.62366635E+00  0.62161511E+00  0.61956307E+00
  0.61751330E+00  0.61546888E+00  0.61343285E+00  0.61140823E+00  0.60939794E+00
  0.60740483E+00  0.60543165E+00  0.60348100E+00  0.60155534E+00  0.59965696E+00
  0.59778798E+00  0.59595031E+00  0.59414567E+00  0.59237554E+00  0.59064120E+00
  0.58894365E+00  0.58728368E+00  0.58566182E+00  0.58407834E+00  0.58253328E+00
  0.58102643E+00  0.57955732E+00  0.57812529E+00  0.57672941E+00  0.57536858E+00
  0.57404146E+00  0.57274655E+00  0.57148216E+00  0.57024644E+00  0.56903738E+00
  0.56785287E+00  0.56669066E+00  0.56554843E+00  0.56442378E+00  0.56331425E+00
  0.56221737E+00  0.56113064E+00  0.56005158E+00  0.55897775E+00  0.55790673E+00
  0.55683617E+00  0.55576381E+00  0.55468747E+00  0.55360508E+00  0.55251470E+00
  0.55141451E+00  0.55030285E+00  0.54917823E+00  0.54803929E+00  0.54688488E+00
  0.54571402E+00  0.54452590E+00  0.54331991E+00  0.54209561E+00  0.54085276E+00
  0.53959128E+00  0.53831127E+00  0.53701301E+00  0.53569694E+00  0.53436366E+00
  0.53301390E+00  0.53164857E+00  0.53026868E+00  0.52887538E+00  0.52746991E+00
  0.52605360E+00  0.52462789E+00  0.52319424E+00  0.52175419E+00  0.52030930E+00
  0.51886118E+00  0.51741143E+00  0.51596163E+00  0.51451339E+00  0.51306827E+00
  0.51162778E+00  0.51019341E+00  0.50876657E+00  0.50734862E+00  0.50594080E+00
  0.50454430E+00  0.50316021E+00  0.50178950E+00  0.50043305E+00  0.49909162E+00
  0.49776588E+00  0.49645638E+00  0.49516355E+00  0.49388773E+00  0.49262914E+00
  0.49138789E+00  0.49016400E+00  0.48895736E+00  0.48776780E+00  0.48659503E+00
  0.48543869E+00  0.48429834E+00  0.48317345E+00  0.48206347E+00  0.48096776E+00
  0.47988565E+00  0.47881644E+00  0.47775938E+00  0.47671371E+00  0.47567866E+00
  0.47465344E+00  0.47363726E+00  0.47262934E+00  0.47162890E+00  0.47063519E+00
  0.46964749E+00  0.46866510E+00  0.46768734E+00  0.46671362E+00  0.46574333E+00
  0.46477595E+00  0.46381099E+00  0.46284799E+00  0.46188658E+00  0.46092637E+00
  0.45996708E+00  0.45900844E+00  0.45805022E+00  0.45709226E+00  0.45613441E+00
  0.45517657E+00  0.45421870E+00  0.45326074E+00  0.45230271E+00  0.45134462E+00
  0.45038650E+00  0.44942841E+00  0.44847040E+00  0.44751253E+00  0.44655488E+00
  0.44559751E+00  0.44464048E+00  0.44368385E+00  0.44272768E+00  0.44177199E+00
  0.44081682E+00  0.43986218E+00  0.43890807E+00  0.43795445E+00  0.43700129E+00
  0.43604852E+00  0.43509606E+00  0.43414381E+00  0.43319166E+00  0.43223948E+00
  0.43128714E+00  0.43033449E+00  0.42938140E+00  0.42842771E+00  0.42747328E+00
  0.42651797E+00  0.42556163E+00  0.42460415E+00  0.42364541E+00  0.42268531E+00
  0.42172379E+00  0.42076079E+00  0.41979631E+00  0.41883035E+00  0.41786297E+00
  0.41689427E+00  0.41592437E+00  0.41495344E+00  0.41398170E+00  0.41300941E+00
  0.41203685E+00  0.41106436E+00  0.41009232E+00  0.40912114E+00  0.40815129E+00
  0.40718325E+00  0.40621755E+00  0.40525475E+00  0.40429544E+00  0.40334022E+00
  0.40238973E+00  0.40144458E+00  0.40050544E+00  0.39957293E+00  0.39864770E+00
  0.39773037E+00  0.39682155E+00  0.39592183E+00  0.39503177E+00  0.39415190E+00
  0.39328272E+00  0.39242466E+00  0.39157813E+00  0.39074347E+00  0.38992095E+00
  0.38911079E+00  0.38831314E+00  0.38752806E+00  0.38675556E+00  0.38599556E+00
  0.38524790E+00  0.38451237E+00  0.38378866E+00  0.38307638E+00  0.38237508E+00
  0.38168423E+00  0.38100324E+00  0.38033144E+00  0.37966808E+00  0.37901238E+00
  0.37836350E+00  0.37772052E+00  0.37708253E+00  0.37644855E+00  0.37581759E+00
  0.37518862E+00  0.37456063E+00  0.37393259E+00  0.37330347E+00  0.37267226E+00
  0.37203796E+00  0.37139962E+00  0.37075629E+00  0.37010710E+00  0.36945120E+00
  0.36878783E+00  0.36811628E+00  0.36743591E+00  0.36674617E+00  0.36604660E+00
  0.36533680E+00  0.36461650E+00  0.36388549E+00  0.36314368E+00  0.36239105E+00
  0.36162771E+00  0.36085386E+00  0.36006977E+00  0.35927585E+00  0.35847257E+00
 gradient corrections used for XC
           5
 core charge-density (partial)
  0.35949334E+00  0.35933621E+00  0.35886523E+00  0.35808155E+00  0.35698708E+00
  0.35558451E+00  0.35387727E+00  0.35186950E+00  0.34956609E+00  0.34697262E+00
  0.34409533E+00  0.34094112E+00  0.33751753E+00  0.33383266E+00  0.32989522E+00
  0.32571442E+00  0.32129997E+00  0.31666205E+00  0.31181126E+00  0.30675858E+00
  0.30151533E+00  0.29609314E+00  0.29050389E+00  0.28475971E+00  0.27887287E+00
  0.27285580E+00  0.26672101E+00  0.26048108E+00  0.25414859E+00  0.24773609E+00
  0.24125608E+00  0.23472095E+00  0.22814293E+00  0.22153411E+00  0.21490634E+00
  0.20827124E+00  0.20164017E+00  0.19502417E+00  0.18843396E+00  0.18187992E+00
  0.17537204E+00  0.16891992E+00  0.16253275E+00  0.15621928E+00  0.14998784E+00
  0.14384628E+00  0.13780199E+00  0.13186189E+00  0.12603240E+00  0.12031949E+00
  0.11472861E+00  0.10926474E+00  0.10393237E+00  0.98735515E-01  0.93677697E-01
  0.88761978E-01  0.83990956E-01  0.79366775E-01  0.74891135E-01  0.70565307E-01
  0.66390144E-01  0.62366094E-01  0.58493218E-01  0.54771204E-01  0.51199383E-01
  0.47776748E-01  0.44501968E-01  0.41373412E-01  0.38389160E-01  0.35547028E-01
  0.32844584E-01  0.30279166E-01  0.27847902E-01  0.25547729E-01  0.23375410E-01
  0.21327555E-01  0.19400636E-01  0.17591006E-01  0.15894917E-01  0.14308535E-01
  0.12827960E-01  0.11449235E-01  0.10168368E-01  0.89813429E-02  0.78841346E-02
  0.68727212E-02  0.59430973E-02  0.50912859E-02  0.43133490E-02  0.36053981E-02
  0.29636041E-02  0.23842059E-02  0.18635188E-02  0.13979418E-02  0.98396432E-03
  0.61817240E-03  0.29725384E-03  0.18002972E-04 -0.22267539E-03 -0.42776254E-03
 -0.60012320E-03 -0.74250332E-03 -0.85752850E-03 -0.94770302E-03 -0.10154092E-02
 -0.10629077E-02 -0.10923373E-02 -0.11057167E-02 -0.11049449E-02 -0.10918036E-02
 -0.10679586E-02 -0.10349628E-02 -0.99425804E-03 -0.94717879E-03 -0.89495470E-03
 -0.83871420E-03 -0.77948798E-03 -0.71821264E-03 -0.65573456E-03 -0.59281373E-03
 -0.53012785E-03 -0.46827632E-03 -0.40778441E-03 -0.34910732E-03 -0.29263436E-03
 -0.23869306E-03 -0.18755321E-03 -0.13943093E-03 -0.94492608E-04 -0.52858820E-04
 -0.14608094E-04  0.20219370E-04  0.51618118E-04  0.79613971E-04  0.10426068E-03
  0.12563674E-03  0.14384229E-03  0.15899619E-03  0.17123330E-03  0.18070177E-03
  0.18756066E-03  0.19197752E-03  0.19412634E-03  0.19418543E-03  0.19233564E-03
  0.18875863E-03  0.18363530E-03  0.17714437E-03  0.16946115E-03  0.16075637E-03
  0.15119518E-03  0.14093630E-03  0.13013124E-03  0.11892370E-03  0.10744904E-03
  0.95833870E-04  0.84195721E-04  0.72642853E-04  0.61274116E-04  0.50178900E-04
  0.39437166E-04  0.29119546E-04  0.19287500E-04  0.99935398E-05  0.12814922E-05
 -0.68131818E-05 -0.14263035E-04 -0.21048243E-04 -0.27156193E-04 -0.32581038E-04
 -0.37323237E-04 -0.41389088E-04 -0.44790241E-04 -0.47543207E-04 -0.49668876E-04
 -0.51192022E-04 -0.52140825E-04 -0.52546397E-04 -0.52442318E-04 -0.51864187E-04
 -0.50849195E-04 -0.49435703E-04 -0.47662854E-04 -0.45570195E-04 -0.43197333E-04
 -0.40583600E-04 -0.37767759E-04 -0.34787721E-04 -0.31680294E-04 -0.28480958E-04
 -0.25223662E-04 -0.21940651E-04 -0.18662310E-04 -0.15417040E-04 -0.12231156E-04
 -0.91288051E-05 -0.61319091E-05 -0.32601266E-05 -0.53083688E-06  0.20408590E-05
  0.44421183E-05  0.66623211E-05  0.86930193E-05  0.10527872E-04  0.12162567E-04
  0.13594736E-04  0.14823853E-04  0.15851126E-04  0.16679392E-04  0.17312986E-04
  0.17757627E-04  0.18020281E-04  0.18109040E-04  0.18032985E-04  0.17802057E-04
  0.17426926E-04  0.16918864E-04  0.16289618E-04  0.15551287E-04  0.14716207E-04
  0.13796835E-04  0.12805641E-04  0.11755009E-04  0.10657138E-04  0.95239576E-05
  0.83670412E-05  0.71975359E-05  0.60260932E-05  0.48628107E-05  0.37171795E-05
  0.25980404E-05  0.15135470E-05  0.47113620E-06 -0.52249408E-06 -0.14614000E-05
 -0.23404004E-05 -0.31550788E-05 -0.39017797E-05 -0.45775982E-05 -0.51803653E-05
 -0.57086274E-05 -0.61616218E-05 -0.65392474E-05 -0.68420323E-05 -0.70710979E-05
 -0.72281196E-05 -0.73152862E-05 -0.73352563E-05 -0.72911137E-05 -0.71863214E-05
 -0.70246754E-05 -0.68102572E-05 -0.65473874E-05 -0.62405791E-05 -0.58944922E-05
 -0.55138885E-05 -0.51035890E-05 -0.46684315E-05 -0.42132312E-05 -0.37427427E-05
 -0.32616249E-05 -0.27744074E-05 -0.22854602E-05 -0.17989663E-05 -0.13188960E-05
 -0.84898507E-06 -0.39271552E-06  0.46701073E-07  0.46633700E-06  0.86355911E-06
  0.12360367E-05  0.15817466E-05  0.18989758E-05  0.21863211E-05  0.24426870E-05
  0.26672804E-05  0.28596039E-05  0.30194467E-05  0.31468737E-05  0.32422129E-05
  0.33060414E-05  0.33391698E-05  0.33426255E-05  0.33176353E-05  0.32656069E-05
  0.31881097E-05  0.30868555E-05  0.29636785E-05  0.28205152E-05  0.26593849E-05
  0.24823699E-05  0.22915957E-05  0.20892126E-05  0.18773771E-05  0.16582344E-05
  0.14339015E-05  0.12064514E-05  0.97789842E-06  0.75018398E-06  0.52516432E-06
  0.30459891E-06  0.90140186E-07 -0.11667539E-06 -0.31443502E-06 -0.50185601E-06
 -0.67779085E-06 -0.84123112E-06 -0.99131002E-06 -0.11273038E-05 -0.12486319E-05
 -0.13548561E-05 -0.14456784E-05 -0.15209378E-05 -0.15806067E-05 -0.16247854E-05
 -0.16536970E-05 -0.16676803E-05 -0.16671829E-05 -0.16527536E-05 -0.16250338E-05
 -0.15847492E-05 -0.15327004E-05 -0.14697540E-05 -0.13968330E-05 -0.13149071E-05
 -0.12249836E-05 -0.11280975E-05 -0.10253023E-05 -0.91766107E-06 -0.80623719E-06
 -0.69208605E-06 -0.57624679E-06 -0.45973456E-06 -0.34353327E-06 -0.22858876E-06
 -0.11580267E-06 -0.60267327E-08  0.99942240E-07  0.20136679E-06  0.29757261E-06
  0.38795170E-06  0.47196489E-06  0.54914376E-06  0.61909183E-06  0.68148529E-06
  0.73607299E-06  0.78267593E-06  0.82118619E-06  0.85156529E-06  0.87384214E-06
  0.88811042E-06  0.89452564E-06  0.89330173E-06  0.88470735E-06  0.86906187E-06
  0.84673102E-06  0.81812244E-06  0.78368099E-06  0.74388388E-06  0.69923577E-06
  0.65026383E-06  0.59751272E-06  0.54153965E-06  0.48290950E-06  0.42219001E-06
  0.35994717E-06  0.29674072E-06  0.23311984E-06  0.16961914E-06  0.10675484E-06
  0.45021187E-07 -0.15112729E-07 -0.73205962E-07 -0.12884832E-06 -0.18166265E-06
 -0.23130681E-06 -0.27747531E-06 -0.31990052E-06 -0.35835366E-06 -0.39264541E-06
 -0.42262610E-06 -0.44818573E-06 -0.46925355E-06 -0.48579740E-06 -0.49782277E-06
 -0.50537156E-06 -0.50852060E-06 -0.50737996E-06 -0.50209101E-06 -0.49282435E-06
 -0.47977751E-06 -0.46317253E-06 -0.44325346E-06 -0.42028368E-06 -0.39454325E-06
 -0.36632610E-06 -0.33593730E-06 -0.30369026E-06 -0.26990393E-06 -0.23490015E-06
 -0.19900090E-06 -0.16252579E-06 -0.12578952E-06 -0.89099512E-07 -0.52753697E-07
 -0.17038370E-07  0.17773738E-07  0.51425245E-07  0.83675731E-07  0.11430316E-06
  0.14310513E-06  0.16989989E-06  0.19452723E-06  0.21684911E-06  0.23675011E-06
  0.25413774E-06  0.26894249E-06  0.28111769E-06  0.29063929E-06  0.29750536E-06
  0.30173548E-06  0.30336997E-06  0.30246897E-06  0.29911138E-06  0.29339374E-06
  0.28542891E-06  0.27534471E-06  0.26328250E-06  0.24939564E-06  0.23384794E-06
  0.21681205E-06  0.19846783E-06  0.17900070E-06  0.15860000E-06  0.13745741E-06
  0.11576525E-06  0.93715046E-07  0.71495908E-07  0.49293152E-07  0.27286888E-07
  0.56507302E-08 -0.15449419E-07 -0.35856487E-07 -0.55423251E-07 -0.74013246E-07
 -0.91501570E-07 -0.10777557E-06 -0.12273542E-06 -0.13629457E-06 -0.14838008E-06
 -0.15893284E-06 -0.16790769E-06 -0.17527340E-06 -0.18101254E-06 -0.18512126E-06
 -0.18760898E-06 -0.18849792E-06 -0.18782264E-06 -0.18562940E-06 -0.18197550E-06
 -0.17692851E-06 -0.17056549E-06 -0.16297212E-06 -0.15424177E-06 -0.14447457E-06
 -0.13377642E-06 -0.12225802E-06 -0.11003382E-06 -0.97221044E-07 -0.83938652E-07
 -0.70306363E-07 -0.56443666E-07 -0.42468872E-07 -0.28498196E-07 -0.14644879E-07
 -0.10183603E-08  0.12276510E-07  0.25140187E-07  0.37479101E-07  0.49206253E-07
  0.60241748E-07  0.70513257E-07  0.79956406E-07  0.88515096E-07  0.96141746E-07
  0.10279746E-06  0.10845213E-06  0.11308444E-06  0.11668186E-06  0.11924049E-06
  0.12076490E-06  0.12126788E-06  0.12077013E-06  0.11929993E-06  0.11689268E-06
  0.11359050E-06  0.10944168E-06  0.10450018E-06  0.98825030E-07  0.92479774E-07
  0.85531814E-07  0.78051800E-07  0.70112980E-07  0.61790551E-07  0.53161012E-07
  0.44301521E-07  0.35289260E-07  0.26200815E-07  0.17111583E-07  0.80951870E-08
 -0.77706284E-09 -0.94366908E-08 -0.17818536E-07 -0.25861196E-07 -0.33507432E-07
 -0.40704529E-07 -0.47404610E-07 -0.53564914E-07 -0.59148011E-07 -0.64121984E-07
 -0.68460556E-07 -0.72143169E-07 -0.75155019E-07 -0.77487040E-07 -0.79135845E-07
 -0.80103627E-07 -0.80398010E-07 -0.80031864E-07 -0.79023086E-07 -0.77394340E-07
 -0.75172766E-07 -0.72389667E-07 -0.69080158E-07 -0.65282802E-07 -0.61039223E-07
 -0.56393707E-07 -0.51392781E-07 -0.46084798E-07 -0.40519503E-07 -0.34747607E-07
 -0.28820360E-07 -0.22789125E-07 -0.16704970E-07 -0.10618257E-07 -0.45782658E-08
  0.13671875E-08  0.71720945E-08  0.12792585E-07  0.18187234E-07  0.23317333E-07
  0.28147149E-07  0.32644140E-07  0.36779149E-07  0.40526562E-07  0.43864437E-07
  0.46774601E-07  0.49242714E-07  0.51258298E-07  0.52814744E-07  0.53909276E-07
  0.54542894E-07  0.54720285E-07  0.54449704E-07  0.53742836E-07  0.52614628E-07
  0.51083097E-07  0.49169125E-07  0.46896228E-07  0.44290315E-07  0.41379426E-07
  0.38193466E-07  0.34763926E-07  0.31123597E-07  0.27306277E-07  0.23346486E-07
  0.19279170E-07  0.15139413E-07  0.10962152E-07  0.67819050E-08  0.26324977E-08
 -0.14531896E-08 -0.54434667E-08 -0.93080627E-08 -0.13018339E-07 -0.16547486E-07
 -0.19870697E-07 -0.22965332E-07 -0.25811046E-07 -0.28389914E-07 -0.30686520E-07
 -0.32688029E-07 -0.34384240E-07 -0.35767613E-07 -0.36833276E-07 -0.37579008E-07
 -0.38005208E-07 -0.38114834E-07 -0.37913331E-07 -0.37408534E-07 -0.36610564E-07
 -0.35531694E-07 -0.34186212E-07 -0.32590265E-07 -0.30761694E-07 -0.28719856E-07
 -0.26485438E-07 -0.24080269E-07 -0.21527119E-07 -0.18849500E-07 -0.16071461E-07
 -0.13217387E-07 -0.10311798E-07 -0.73791457E-08 -0.44436247E-08 -0.15289793E-08
  0.13416758E-08  0.41460285E-08  0.68627328E-08  0.94715602E-08  0.11953541E-07
  0.14291091E-07  0.16468125E-07  0.18470160E-07  0.20284396E-07  0.21899787E-07
  0.23307099E-07  0.24498945E-07  0.25469813E-07  0.26216070E-07  0.26735959E-07
  0.27029573E-07  0.27098826E-07  0.26947396E-07  0.26580666E-07  0.26005646E-07
  0.25230890E-07  0.24266397E-07  0.23123499E-07  0.21814753E-07  0.20353813E-07
  0.18755299E-07  0.17034665E-07  0.15208057E-07  0.13292175E-07  0.11304123E-07
  0.92612684E-08  0.71810985E-08  0.50810758E-08  0.29785002E-08  0.89037317E-09
 -0.11667330E-08 -0.31768000E-08 -0.51244812E-08 -0.69952128E-08 -0.87753156E-08
 -0.10452089E-07 -0.12013893E-07 -0.13450225E-07 -0.14751781E-07 -0.15910508E-07
 -0.16919648E-07 -0.17773766E-07 -0.18468773E-07 -0.19001928E-07 -0.19371845E-07
 -0.19578470E-07 -0.19623064E-07 -0.19508168E-07 -0.19237558E-07 -0.18816192E-07
 -0.18250153E-07 -0.17546577E-07 -0.16713578E-07 -0.15760164E-07 -0.14696154E-07
 -0.13532078E-07 -0.12279086E-07 -0.10948843E-07 -0.95534313E-08 -0.81052414E-08
 -0.66168714E-08 -0.51010204E-08 -0.35703854E-08 -0.20375600E-08 -0.51493493E-09
  0.98539744E-09  0.24517346E-08  0.38728511E-08  0.52380797E-08  0.65373876E-08
  0.77614453E-08  0.89016893E-08  0.99503777E-08  0.10900637E-07  0.11746504E-07
  0.12482956E-07  0.13105936E-07  0.13612366E-07  0.14000160E-07  0.14268220E-07
  0.14416426E-07  0.14445626E-07  0.14357608E-07  0.14155070E-07  0.13841587E-07
  0.13421562E-07  0.12900180E-07  0.12283351E-07  0.11577655E-07  0.10790272E-07
  0.99289181E-08  0.90017734E-08  0.80174093E-08  0.69847131E-08  0.59128111E-08
  0.48109918E-08  0.36886292E-08  0.25551055E-08  0.14197364E-08  0.29169751E-09
 -0.82004694E-09 -0.19068123E-08 -0.29602584E-08 -0.39724507E-08 -0.49359170E-08
 -0.58436997E-08 -0.66894032E-08 -0.74672354E-08 -0.81720448E-08 -0.87993507E-08
 -0.93453683E-08 -0.98070274E-08 -0.10181986E-07 -0.10468636E-07 -0.10666104E-07
 -0.10774250E-07 -0.10793649E-07 -0.10725585E-07 -0.10572018E-07 -0.10335567E-07
 -0.10019472E-07 -0.96275611E-08 -0.91642103E-08 -0.86342977E-08 -0.80431580E-08
 -0.73965319E-08 -0.67005138E-08 -0.59614970E-08 -0.51861178E-08 -0.43811989E-08
 -0.35536910E-08 -0.27106159E-08 -0.18590085E-08 -0.10058605E-08 -0.15806513E-09
  0.67763648E-09  0.14947070E-08  0.22868622E-08  0.30481166E-08  0.37728276E-08
  0.44557347E-08  0.50919956E-08  0.56772188E-08  0.62074914E-08  0.66794028E-08
  0.70900646E-08  0.74371253E-08  0.77187805E-08  0.79337794E-08  0.80814259E-08
  0.81615752E-08  0.81746271E-08  0.81215138E-08  0.80036844E-08  0.78230852E-08
  0.75821367E-08  0.72837063E-08  0.69310793E-08  0.65279254E-08  0.60782637E-08
  0.55864251E-08  0.50570129E-08  0.44948618E-08  0.39049954E-08  0.32925832E-08
  0.26628972E-08  0.20212677E-08  0.13730400E-08  0.72353116E-09  0.77988079E-10
 -0.55845364E-09 -0.11808091E-08 -0.17842818E-08 -0.23642992E-08 -0.29165457E-08
 -0.34369939E-08 -0.39219321E-08 -0.43679893E-08 -0.47721573E-08 -0.51318091E-08
 -0.54447146E-08 -0.57090520E-08 -0.59234171E-08 -0.60868273E-08 -0.61987240E-08
 -0.62589705E-08 -0.62678467E-08 -0.62260409E-08 -0.61346381E-08 -0.59951055E-08
 -0.58092750E-08 -0.55793233E-08 -0.53077491E-08 -0.49973488E-08 -0.46511892E-08
 -0.42725794E-08 -0.38650405E-08 -0.34322742E-08 -0.29781308E-08 -0.25065760E-08
 -0.20216575E-08 -0.15274711E-08 -0.10281279E-08 -0.52772015E-09 -0.30289717E-10
  0.46020424E-09  0.93991548E-09  0.14051399E-08  0.18523434E-08  0.22781871E-08
  0.26795521E-08  0.30535607E-08  0.33975963E-08  0.37093202E-08  0.39866869E-08
  0.42279560E-08  0.44317017E-08  0.45968198E-08  0.47225320E-08  0.48083874E-08
  0.48542616E-08  0.48603529E-08  0.48271761E-08  0.47555540E-08  0.46466064E-08
  0.45017370E-08  0.43226178E-08  0.41111723E-08  0.38695566E-08  0.36001383E-08
  0.33054751E-08  0.29882915E-08  0.26514543E-08  0.22979483E-08  0.19308500E-08
  0.15533022E-08  0.11684875E-08  0.77960278E-09  0.38983272E-09  0.23249638E-11
 -0.37983478E-09 -0.75364659E-09 -0.11162191E-08 -0.14647914E-08 -0.17967529E-08
 -0.21096625E-08 -0.24012660E-08 -0.26695111E-08 -0.29125611E-08 -0.31288072E-08
 -0.33168776E-08 -0.34756456E-08 -0.36042352E-08 -0.37020247E-08 -0.37686481E-08
 -0.38039944E-08 -0.38082056E-08 -0.37816714E-08 -0.37250230E-08 -0.36391250E-08
 -0.35250648E-08 -0.33841413E-08 -0.32178513E-08 -0.30278752E-08 -0.28160607E-08
 -0.25844056E-08 -0.23350405E-08 -0.20702090E-08 -0.17922491E-08 -0.15035724E-08
 -0.12066443E-08 -0.90396335E-09 -0.59804080E-09 -0.29138032E-09  0.13541983E-10
  0.31429700E-09  0.60852149E-09  0.89393610E-09  0.11683626E-08  0.14297398E-08
  0.16761387E-08  0.19057762E-08  0.21170272E-08  0.23084359E-08  0.24787249E-08
  0.26268032E-08  0.27517725E-08  0.28529320E-08  0.29297809E-08  0.29820204E-08
  0.30095532E-08  0.30124815E-08  0.29911036E-08  0.29459091E-08  0.28775724E-08
  0.27869449E-08  0.26750456E-08  0.25430513E-08  0.23922845E-08  0.22242013E-08
  0.20403780E-08  0.18424966E-08  0.16323304E-08  0.14117280E-08  0.11825982E-08
  0.94689345E-09  0.70659372E-09  0.46369045E-09  0.22017030E-09 -0.22000688E-10
 -0.26089254E-09 -0.49462640E-09 -0.72138887E-09 -0.93944578E-09 -0.11471550E-08
 -0.13429784E-08 -0.15254931E-08 -0.16934009E-08 -0.18455375E-08 -0.19808802E-08
 -0.20985539E-08 -0.21978364E-08 -0.22781625E-08 -0.23391261E-08 -0.23804819E-08
 -0.24021448E-08 -0.24041892E-08 -0.23868457E-08 -0.23504978E-08 -0.22956768E-08
 -0.22230554E-08 -0.21334408E-08 -0.20277666E-08 -0.19070835E-08 -0.17725494E-08
 -0.16254192E-08 -0.14670329E-08 -0.12988043E-08 -0.11222085E-08 -0.93876951E-09
 -0.75004715E-09 -0.55762434E-09 -0.36309401E-09 -0.16804626E-09  0.25944364E-10
  0.21733131E-09  0.40460805E-09  0.58631964E-09  0.76107380E-09  0.92755123E-09
  0.10845153E-08  0.12308211E-08  0.13654232E-08  0.14873829E-08  0.15958746E-08
  0.16901910E-08  0.17697471E-08  0.18340835E-08  0.18828688E-08  0.19159003E-08
  0.19331041E-08  0.19345346E-08  0.19203718E-08  0.18909189E-08  0.18465980E-08
  0.17879456E-08  0.17156067E-08  0.16303281E-08  0.15329517E-08  0.14244062E-08
  0.13056990E-08  0.11779065E-08  0.10421655E-08  0.89966250E-09  0.75162437E-09
  0.59930751E-09  0.44398763E-09  0.28694924E-09  0.12947529E-09 -0.27163116E-10
 kinetic energy density (partial)
  0.36038699E+02  0.36022958E+02  0.35975772E+02  0.35897258E+02  0.35787608E+02
  0.35647089E+02  0.35476044E+02  0.35274890E+02  0.35044115E+02  0.34784276E+02
  0.34495999E+02  0.34179975E+02  0.33836957E+02  0.33467757E+02  0.33073246E+02
  0.32654345E+02  0.32212027E+02  0.31747312E+02  0.31261258E+02  0.30754967E+02
  0.30229571E+02  0.29686235E+02  0.29126149E+02  0.28550526E+02  0.27960595E+02
  0.27357602E+02  0.26742799E+02  0.26117445E+02  0.25482802E+02  0.24840127E+02
  0.24190671E+02  0.23535675E+02  0.22876367E+02  0.22213955E+02  0.21549630E+02
  0.20884554E+02  0.20219867E+02  0.19556675E+02  0.18896053E+02  0.18239042E+02
  0.17586643E+02  0.16939819E+02  0.16299492E+02  0.15666540E+02  0.15041797E+02
  0.14426052E+02  0.13820047E+02  0.13224474E+02  0.12639980E+02  0.12067163E+02
  0.11506570E+02  0.10958703E+02  0.10424010E+02  0.99028966E+01  0.93957159E+01
  0.89027760E+01  0.84243381E+01  0.79606178E+01  0.75117866E+01  0.70779725E+01
  0.66592617E+01  0.62557000E+01  0.58672941E+01  0.54940134E+01  0.51357912E+01
  0.47925272E+01  0.44640885E+01  0.41503118E+01  0.38510053E+01  0.35659502E+01
  0.32949028E+01  0.30375968E+01  0.27937442E+01  0.25630382E+01  0.23451544E+01
  0.21397529E+01  0.19464801E+01  0.17649704E+01  0.15948480E+01  0.14357286E+01
  0.12872207E+01  0.11489279E+01  0.10204498E+01  0.90138344E+00  0.79132525E+00
  0.68987183E+00  0.59662146E+00  0.51117521E+00  0.43313810E+00  0.36212012E+00
  0.29773718E+00  0.23961204E+00  0.18737511E+00  0.14066519E+00  0.99130179E-01
  0.62427634E-01  0.30225351E-01  0.22018069E-02 -0.21953432E-01 -0.42539372E-01
 -0.59843319E-01 -0.74140660E-01 -0.85694708E-01 -0.94756598E-01 -0.10156523E+00
 -0.10634729E+00 -0.10931725E+00 -0.11067750E+00 -0.11061848E+00 -0.10931879E+00
 -0.10694546E+00 -0.10365417E+00 -0.99589467E-01 -0.94885118E-01 -0.89664388E-01
 -0.84040390E-01 -0.78116433E-01 -0.71986393E-01 -0.65735098E-01 -0.59438720E-01
 -0.53165177E-01 -0.46974541E-01 -0.40919452E-01 -0.35045531E-01 -0.29391792E-01
 -0.23991062E-01 -0.18870380E-01 -0.14051412E-01 -0.95508385E-02 -0.53807531E-02
 -0.15490381E-02  0.19402626E-02  0.50865842E-02  0.78924933E-02  0.10363353E-01
  0.12507002E-01  0.14333445E-01  0.15854565E-01  0.17083840E-01  0.18036080E-01
  0.18727187E-01  0.19173913E-01  0.19393651E-01  0.19404229E-01  0.19223728E-01
  0.18870308E-01  0.18362056E-01  0.17716839E-01  0.16952182E-01  0.16085154E-01
  0.15132265E-01  0.14109382E-01  0.13031653E-01  0.11913443E-01  0.10768284E-01
  0.96088339E-02  0.84468444E-02  0.72931398E-02  0.61576041E-02  0.50491768E-02
  0.39758555E-02  0.29447056E-02  0.19618768E-02  0.10326249E-02  0.16133842E-03
 -0.64842956E-03 -0.13939261E-02 -0.20731598E-02 -0.26848589E-02 -0.32284273E-02
 -0.37038989E-02 -0.41118903E-02 -0.44535526E-02 -0.47305225E-02 -0.49448738E-02
 -0.50990685E-02 -0.51959086E-02 -0.52384893E-02 -0.52301522E-02 -0.51744412E-02
 -0.50750593E-02 -0.49358267E-02 -0.47606424E-02 -0.45534462E-02 -0.43181842E-02
 -0.40587762E-02 -0.37790856E-02 -0.34828913E-02 -0.31738632E-02 -0.28555392E-02
 -0.25313052E-02 -0.22043777E-02 -0.18777885E-02 -0.15543721E-02 -0.12367558E-02
 -0.92735090E-03 -0.62834766E-03 -0.34171113E-03 -0.69179555E-04  0.18773548E-03
  0.42774718E-03  0.64978996E-03  0.85301447E-03  0.10367811E-02  0.12006525E-02
  0.13443845E-02  0.14679168E-02  0.15713620E-02  0.16549947E-02  0.17192391E-02
  0.17646573E-02  0.17919361E-02  0.18018745E-02  0.17953704E-02  0.17734075E-02
  0.17370429E-02  0.16873937E-02  0.16256248E-02  0.15529368E-02  0.14705542E-02
  0.13797140E-02  0.12816552E-02  0.11776086E-02  0.10687872E-02  0.95637747E-03
  0.84153126E-03  0.72535822E-03  0.60891928E-03  0.49322065E-03  0.37920866E-03
  0.26776532E-03  0.15970465E-03  0.55769733E-04 -0.43369564E-04 -0.13711809E-03
 -0.22495633E-03 -0.30644060E-03 -0.38120272E-03 -0.44894906E-03 -0.50945906E-03
 -0.56258324E-03 -0.60824081E-03 -0.64641678E-03 -0.67715878E-03 -0.70057350E-03
 -0.71682284E-03 -0.72611990E-03 -0.72872465E-03 -0.72493952E-03 -0.71510492E-03
 -0.69959454E-03 -0.67881078E-03 -0.65318008E-03 -0.62314830E-03 -0.58917622E-03
 -0.55173510E-03 -0.51130236E-03 -0.46835747E-03 -0.42337798E-03 -0.37683574E-03
 -0.32919344E-03 -0.28090123E-03 -0.23239375E-03 -0.18408731E-03 -0.13637742E-03
 -0.89636571E-04 -0.44212265E-04 -0.42540089E-06  0.41431106E-04  0.81093404E-04
  0.11832751E-03  0.15292984E-03  0.18472748E-03  0.21357819E-03  0.23937022E-03
  0.26202178E-03  0.28148043E-03  0.29772218E-03  0.31075046E-03  0.32059483E-03
  0.32730966E-03  0.33097260E-03  0.33168293E-03  0.32955984E-03  0.32474061E-03
  0.31737876E-03  0.30764208E-03  0.29571070E-03  0.28177512E-03  0.26603423E-03
  0.24869339E-03  0.22996245E-03  0.21005395E-03  0.18918125E-03  0.16755681E-03
  0.14539049E-03  0.12288802E-03  0.10024948E-03  0.77667931E-04  0.55328169E-04
  0.33405560E-04  0.12065023E-04 -0.85398737E-05 -0.28267690E-04 -0.46989761E-04
 -0.64590719E-04 -0.80968891E-04 -0.96036573E-04 -0.10972018E-03 -0.12196026E-03
 -0.13271148E-03 -0.14194234E-03 -0.14963498E-03 -0.15578473E-03 -0.16039967E-03
 -0.16350004E-03 -0.16511766E-03 -0.16529518E-03 -0.16408536E-03 -0.16155024E-03
 -0.15776030E-03 -0.15279356E-03 -0.14673470E-03 -0.13967412E-03 -0.13170696E-03
 -0.12293224E-03 -0.11345185E-03 -0.10336964E-03 -0.92790568E-04 -0.81819747E-04
 -0.70561642E-04 -0.59119239E-04 -0.47593281E-04 -0.36081540E-04 -0.24678138E-04
 -0.13472934E-04 -0.25509481E-05  0.80081380E-05  0.18130431E-04  0.27748210E-04
  0.36800250E-04  0.45232079E-04  0.52996176E-04  0.60052106E-04  0.66366594E-04
  0.71913541E-04  0.76673978E-04  0.80635972E-04  0.83794478E-04  0.86151136E-04
  0.87714027E-04  0.88497389E-04  0.88521290E-04  0.87811264E-04  0.86397926E-04
  0.84316545E-04  0.81606611E-04  0.78311372E-04  0.74477359E-04  0.70153909E-04
  0.65392667E-04  0.60247104E-04  0.54772020E-04  0.49023068E-04  0.43056275E-04
  0.36927584E-04  0.30692406E-04  0.24405199E-04  0.18119059E-04  0.11885343E-04
  0.57533099E-05 -0.23019864E-06 -0.60210593E-05 -0.11578130E-04 -0.16863485E-04
 -0.21842609E-04 -0.26484572E-04 -0.30762155E-04 -0.34651952E-04 -0.38134433E-04
 -0.41193983E-04 -0.43818896E-04 -0.46001348E-04 -0.47737337E-04 -0.49026594E-04
 -0.49872471E-04 -0.50281793E-04 -0.50264706E-04 -0.49834484E-04 -0.49007326E-04
 -0.47802143E-04 -0.46240314E-04 -0.44345444E-04 -0.42143108E-04 -0.39660579E-04
 -0.36926567E-04 -0.33970939E-04 -0.30824447E-04 -0.27518457E-04 -0.24084676E-04
 -0.20554890E-04 -0.16960709E-04 -0.13333314E-04 -0.97032294E-05 -0.61000890E-05
 -0.25524317E-05  0.91249622E-06  0.42689207E-05  0.74927022E-05  0.10561481E-04
  0.13454802E-04  0.16154225E-04  0.18643411E-04  0.20908193E-04  0.22936624E-04
  0.24719011E-04  0.26247923E-04  0.27518190E-04  0.28526874E-04  0.29273232E-04
  0.29758659E-04  0.29986611E-04  0.29962524E-04  0.29693712E-04  0.29189253E-04
  0.28459870E-04  0.27517796E-04  0.26376636E-04  0.25051215E-04  0.23557431E-04
  0.21912095E-04  0.20132769E-04  0.18237610E-04  0.16245203E-04  0.14174402E-04
  0.12044174E-04  0.98734415E-05  0.76809344E-05  0.54850444E-05  0.33036874E-05
  0.11541739E-05 -0.94691360E-06 -0.29838328E-05 -0.49417847E-05 -0.68070067E-05
 -0.85668538E-05 -0.10209870E-04 -0.11725849E-04 -0.13105879E-04 -0.14342382E-04
 -0.15429139E-04 -0.16361300E-04 -0.17135391E-04 -0.17749302E-04 -0.18202268E-04
 -0.18494839E-04 -0.18628845E-04 -0.18607341E-04 -0.18434556E-04 -0.18115827E-04
 -0.17657524E-04 -0.17066978E-04 -0.16352391E-04 -0.15522753E-04 -0.14587746E-04
 -0.13557653E-04 -0.12443255E-04 -0.11255736E-04 -0.10006581E-04 -0.87074778E-05
 -0.73702180E-05 -0.60065999E-05 -0.46283340E-05 -0.32469520E-05 -0.18737188E-05
 -0.51954950E-06  0.80506926E-06  0.20901521E-05  0.33262822E-05  0.45046722E-05
  0.56172188E-05  0.66565503E-05  0.76160672E-05  0.84899761E-05  0.92733153E-05
  0.99619744E-05  0.10552706E-04  0.11043130E-04  0.11431732E-04  0.11717853E-04
  0.11901674E-04  0.11984195E-04  0.11967207E-04  0.11853256E-04  0.11645607E-04
  0.11348198E-04  0.10965595E-04  0.10502939E-04  0.99658904E-05  0.93605713E-05
  0.86935068E-05  0.79715619E-05  0.72018790E-05  0.63918143E-05  0.55488736E-05
  0.46806489E-05  0.37947556E-05  0.28987715E-05  0.20001762E-05  0.11062949E-05
  0.22424225E-06 -0.63912863E-06 -0.14772752E-05 -0.22840106E-05 -0.30535444E-05
 -0.37805200E-05 -0.44600472E-05 -0.50877301E-05 -0.56596917E-05 -0.61725917E-05
 -0.66236416E-05 -0.70106141E-05 -0.73318477E-05 -0.75862474E-05 -0.77732802E-05
 -0.78929664E-05 -0.79458673E-05 -0.79330676E-05 -0.78561556E-05 -0.77171987E-05
 -0.75187159E-05 -0.72636479E-05 -0.69553236E-05 -0.65974250E-05 -0.61939498E-05
 -0.57491723E-05 -0.52676032E-05 -0.47539482E-05 -0.42130658E-05 -0.36499255E-05
 -0.30695654E-05 -0.24770502E-05 -0.18774305E-05 -0.12757026E-05 -0.67676982E-06
 -0.85405195E-07  0.49378361E-06  0.10563876E-05  0.15982272E-05  0.21153810E-05
  0.26042109E-05  0.30613854E-05  0.34838996E-05  0.38690918E-05  0.42146577E-05
  0.45186609E-05  0.47795402E-05  0.49961146E-05  0.51675840E-05  0.52935277E-05
  0.53738994E-05  0.54090199E-05  0.53995664E-05  0.53465597E-05  0.52513485E-05
  0.51155920E-05  0.49412396E-05  0.47305097E-05  0.44858658E-05  0.42099920E-05
  0.39057667E-05  0.35762357E-05  0.32245841E-05  0.28541082E-05  0.24681866E-05
  0.20702516E-05  0.16637608E-05  0.12521685E-05  0.83889862E-06  0.42731780E-06
  0.20709617E-07 -0.37774988E-06 -0.76501535E-06 -0.11381938E-05 -0.14945646E-05
 -0.18315975E-05 -0.21469695E-05 -0.24385785E-05 -0.27045559E-05 -0.29432769E-05
 -0.31533684E-05 -0.33337149E-05 -0.34834621E-05 -0.36020185E-05 -0.36890550E-05
 -0.37445019E-05 -0.37685445E-05 -0.37616164E-05 -0.37243912E-05 -0.36577720E-05
 -0.35628800E-05 -0.34410408E-05 -0.32937699E-05 -0.31227570E-05 -0.29298488E-05
 -0.27170312E-05 -0.24864104E-05 -0.22401945E-05 -0.19806728E-05 -0.17101967E-05
 -0.14311593E-05 -0.11459756E-05 -0.85706274E-06 -0.56682053E-06 -0.27761278E-06
  0.82509625E-08  0.28853283E-06  0.56108313E-06  0.82385576E-06  0.10749226E-05
  0.13124868E-05  0.15348941E-05  0.17406439E-05  0.19283981E-05  0.20969884E-05
  0.22454228E-05  0.23728899E-05  0.24787618E-05  0.25625961E-05  0.26241355E-05
  0.26633063E-05  0.26802159E-05  0.26751481E-05  0.26485576E-05  0.26010633E-05
  0.25334402E-05  0.24466101E-05  0.23416315E-05  0.22196888E-05  0.20820802E-05
  0.19302056E-05  0.17655528E-05  0.15896848E-05  0.14042253E-05  0.12108448E-05
  0.10112464E-05  0.80715164E-06  0.60028621E-06  0.39236627E-06  0.18508481E-06
 -0.19901443E-07 -0.22098458E-06 -0.41661748E-06 -0.60532505E-06 -0.78571470E-06
 -0.95648598E-06 -0.11164393E-05 -0.12644835E-05 -0.13996430E-05 -0.15210632E-05
 -0.16280149E-05 -0.17198986E-05 -0.17962460E-05 -0.18567221E-05 -0.19011252E-05
 -0.19293862E-05 -0.19415665E-05 -0.19378555E-05 -0.19185667E-05 -0.18841328E-05
 -0.18351003E-05 -0.17721231E-05 -0.16959554E-05 -0.16074434E-05 -0.15075178E-05
 -0.13971840E-05 -0.12775133E-05 -0.11496327E-05 -0.10147156E-05 -0.87397082E-06
 -0.72863281E-06 -0.57995120E-06 -0.42918053E-06 -0.27757015E-06 -0.12635432E-06
  0.23257393E-07  0.17008935E-06  0.31300863E-06  0.45093340E-06  0.58284058E-06
  0.70777310E-06  0.82484635E-06  0.93325400E-06  0.10322731E-05  0.11212685E-05
  0.11996963E-05  0.12671065E-05  0.13231455E-05  0.13675566E-05  0.14001810E-05
  0.14209569E-05  0.14299187E-05  0.14271948E-05  0.14130053E-05  0.13876583E-05
  0.13515464E-05  0.13051416E-05  0.12489905E-05  0.11837089E-05  0.11099751E-05
  0.10285239E-05  0.94013968E-06  0.84564914E-06  0.74591417E-06  0.64182426E-06
  0.53428899E-06  0.42423036E-06  0.31257527E-06  0.20024797E-06  0.88162794E-07
 -0.22783068E-07 -0.13171640E-06 -0.23779457E-06 -0.34021176E-06 -0.43820477E-06
 -0.53105847E-06 -0.61811067E-06 -0.69875660E-06 -0.77245272E-06 -0.83872016E-06
 -0.89714742E-06 -0.94739256E-06 -0.98918483E-06 -0.10223257E-05 -0.10466891E-05
 -0.10622215E-05 -0.10689410E-05 -0.10669361E-05 -0.10563636E-05 -0.10374468E-05
 -0.10104721E-05 -0.97578572E-06 -0.93379044E-06 -0.88494100E-06 -0.82973980E-06
 -0.76873213E-06 -0.70250110E-06 -0.63166235E-06 -0.55685867E-06 -0.47875437E-06
 -0.39802965E-06 -0.31537490E-06 -0.23148502E-06 -0.14705382E-06 -0.62768428E-07
  0.20696027E-07  0.10268167E-06  0.18255287E-06  0.25970091E-06  0.33354853E-06
  0.40355395E-06  0.46921471E-06  0.53007103E-06  0.58570886E-06  0.63576241E-06
  0.67991641E-06  0.71790776E-06  0.74952685E-06  0.77461842E-06  0.79308196E-06
  0.80487161E-06  0.80999573E-06  0.80851601E-06  0.80054608E-06  0.78624986E-06
  0.76583946E-06  0.73957273E-06  0.70775052E-06  0.67071356E-06  0.62883921E-06
  0.58253778E-06  0.53224883E-06  0.47843718E-06  0.42158876E-06  0.36220650E-06
  0.30080596E-06  0.23791107E-06  0.17404977E-06  0.10974978E-06  0.45534333E-07
 -0.18081897E-07 -0.80596816E-07 -0.14152472E-06 -0.20039992E-06 -0.25678020E-06
 -0.31024997E-06 -0.36042318E-06 -0.40694600E-06 -0.44949915E-06 -0.48779992E-06
 -0.52160391E-06 -0.55070640E-06 -0.57494341E-06 -0.59419237E-06 -0.60837252E-06
 -0.61744493E-06 -0.62141218E-06 -0.62031773E-06 -0.61424496E-06 -0.60331594E-06
 -0.58768984E-06 -0.56756117E-06 -0.54315764E-06 -0.51473789E-06 -0.48258897E-06
 -0.44702360E-06 -0.40837734E-06 -0.36700550E-06 -0.32328010E-06 -0.27758658E-06
 -0.23032056E-06 -0.18188449E-06 -0.13268439E-06 -0.83126514E-07 -0.33614085E-07
  0.15455852E-07  0.63695535E-07  0.11072945E-06  0.15619715E-06  0.19975593E-06
  0.24108331E-06  0.27987933E-06  0.31586859E-06  0.34880215E-06  0.37845912E-06
  0.40464802E-06  0.42720789E-06  0.44600916E-06  0.46095423E-06  0.47197776E-06
  0.47904682E-06  0.48216060E-06  0.48135000E-06  0.47667697E-06  0.46823350E-06
  0.45614053E-06  0.44054652E-06  0.42162592E-06  0.39957737E-06  0.37462180E-06
  0.34700034E-06  0.31697211E-06  0.28481187E-06  0.25080765E-06  0.21525823E-06
  0.17847060E-06  0.14075742E-06  0.10243440E-06  0.63817738E-07  0.25221627E-07
 -0.13044278E-07 -0.50677252E-07 -0.87383831E-07 -0.12288203E-06 -0.15690342E-06
 -0.18919515E-06 -0.21952166E-06 -0.24766642E-06 -0.27343334E-06 -0.29664806E-06
 -0.31715911E-06 -0.33483870E-06 -0.34958353E-06 -0.36131521E-06 -0.36998055E-06
 -0.37555170E-06 -0.37802594E-06 -0.37742543E-06 -0.37379668E-06 -0.36720982E-06
 -0.35775774E-06 -0.34555503E-06 -0.33073680E-06 -0.31345727E-06 -0.29388832E-06
 -0.27221786E-06 -0.24864810E-06 -0.22339379E-06 -0.19668025E-06 -0.16874152E-06
 -0.13981829E-06 -0.11015593E-06 -0.80002475E-07 -0.49606560E-07 -0.19215460E-07
  0.10926882E-07  0.40581762E-07  0.69517552E-07  0.97511462E-07  0.12435120E-06
  0.14983654E-06  0.17378076E-06  0.19601194E-06  0.21637417E-06  0.23472857E-06
  0.25095418E-06  0.26494868E-06  0.27662900E-06  0.28593167E-06  0.29281313E-06
  0.29724980E-06  0.29923798E-06  0.29879364E-06  0.29595206E-06  0.29076725E-06
  0.28331130E-06  0.27367357E-06  0.26195972E-06  0.24829071E-06  0.23280158E-06
  0.21564021E-06  0.19696597E-06  0.17694829E-06  0.15576519E-06  0.13360172E-06
  0.11064842E-06  0.87099697E-07  0.63152231E-07  0.39003377E-07  0.14849572E-07
 -0.91152224E-08 -0.32701043E-07 -0.55723390E-07 -0.78004635E-07 -0.99375354E-07
 -0.11967558E-06 -0.13875595E-06 -0.15647880E-06 -0.17271906E-06 -0.18736515E-06
 -0.20031967E-06 -0.21150002E-06 -0.22083885E-06 -0.22828441E-06 -0.23380081E-06
 -0.23736803E-06 -0.23898195E-06 -0.23865414E-06 -0.23641160E-06 -0.23229632E-06
 -0.22636478E-06 -0.21868730E-06 -0.20934733E-06 -0.19844057E-06 -0.18607412E-06
 -0.17236540E-06 -0.15744116E-06 -0.14143628E-06 -0.12449266E-06 -0.10675794E-06
 -0.88384262E-07 -0.69527015E-07 -0.50343538E-07 -0.30991837E-07 -0.11629314E-07
  0.75884815E-08  0.26509080E-07  0.44984270E-07  0.62871233E-07  0.80033618E-07
  0.96342555E-07  0.11167759E-06  0.12592756E-06  0.13899135E-06  0.15077857E-06
  0.16121020E-06  0.17021902E-06  0.17775003E-06  0.18376077E-06  0.18822144E-06
  0.19111506E-06  0.19243738E-06  0.19219683E-06  0.19041423E-06  0.18712253E-06
  0.18236636E-06  0.17620154E-06  0.16869453E-06  0.15992172E-06  0.14996875E-06
  0.13892966E-06  0.12690609E-06  0.11400633E-06  0.10034441E-06  0.86039073E-07
  0.71212835E-07  0.55990901E-07  0.40500156E-07  0.24868125E-07  0.92219486E-08
 atomic pseudo charge-density
  0.13000000E+02  0.12989010E+02  0.12956201E+02  0.12902053E+02  0.12827342E+02
  0.12733108E+02  0.12620615E+02  0.12491300E+02  0.12346726E+02  0.12188524E+02
  0.12018351E+02  0.11837844E+02  0.11648582E+02  0.11452058E+02  0.11249657E+02
  0.11042641E+02  0.10832140E+02  0.10619155E+02  0.10404555E+02  0.10189086E+02
  0.99733805E+01  0.97579671E+01  0.95432824E+01  0.93296824E+01  0.91174536E+01
  0.89068243E+01  0.86979739E+01  0.84910420E+01  0.82861359E+01  0.80833376E+01
  0.78827094E+01  0.76842987E+01  0.74881418E+01  0.72942674E+01  0.71026991E+01
  0.69134570E+01  0.67265600E+01  0.65420260E+01  0.63598737E+01  0.61801223E+01
  0.60027924E+01  0.58279058E+01  0.56554858E+01  0.54855568E+01  0.53181446E+01
  0.51532756E+01  0.49909773E+01  0.48312771E+01  0.46742028E+01  0.45197819E+01
  0.43680414E+01  0.42190077E+01  0.40727059E+01  0.39291599E+01  0.37883923E+01
  0.36504237E+01  0.35152730E+01  0.33829568E+01  0.32534898E+01  0.31268841E+01
  0.30031496E+01  0.28822936E+01  0.27643208E+01  0.26492336E+01  0.25370313E+01
  0.24277111E+01  0.23212674E+01  0.22176918E+01  0.21169737E+01  0.20190998E+01
  0.19240543E+01  0.18318193E+01  0.17423741E+01  0.16556962E+01  0.15717605E+01
  0.14905401E+01  0.14120059E+01  0.13361270E+01  0.12628705E+01  0.11922018E+01
  0.11240846E+01  0.10584810E+01  0.99535175E+00  0.93465602E+00  0.87635175E+00
  0.82039565E+00  0.76674329E+00  0.71534921E+00  0.66616699E+00  0.61914935E+00
  0.57424822E+00  0.53141485E+00  0.49059985E+00  0.45175332E+00  0.41482491E+00
  0.37976387E+00  0.34651918E+00  0.31503959E+00  0.28527369E+00  0.25717000E+00
  0.23067703E+00  0.20574334E+00  0.18231762E+00  0.16034875E+00  0.13978585E+00
  0.12057836E+00  0.10267606E+00  0.86029192E-01  0.70588435E-01  0.56305014E-01
  0.43130727E-01  0.31017993E-01  0.19919902E-01  0.97902554E-02  0.58360648E-03
 -0.77446982E-02 -0.15238484E-01 -0.21940711E-01 -0.27893447E-01 -0.33137831E-01
 -0.37714048E-01 -0.41661304E-01 -0.45017799E-01 -0.47820711E-01 -0.50106169E-01
 -0.51909244E-01 -0.53263927E-01 -0.54203121E-01 -0.54758626E-01 -0.54961135E-01
 -0.54840224E-01 -0.54424349E-01 -0.53740842E-01 -0.52815912E-01 -0.51674648E-01
 -0.50341017E-01 -0.48837877E-01 -0.47186977E-01 -0.45408971E-01 -0.43523426E-01
 -0.41548836E-01 -0.39502634E-01 -0.37401211E-01 -0.35259929E-01 -0.33093143E-01
 -0.30914221E-01 -0.28735562E-01 -0.26568621E-01 -0.24423933E-01 -0.22311137E-01
 -0.20239000E-01 -0.18215447E-01 -0.16247588E-01 -0.14341742E-01 -0.12503473E-01
 -0.10737614E-01 -0.90482972E-02 -0.74389888E-02 -0.59125155E-02 -0.44710976E-02
 -0.31163800E-02 -0.18494630E-02 -0.67093413E-03  0.41910063E-03  0.14209858E-02
  0.23354856E-02  0.31637531E-02  0.39072999E-02  0.45679667E-02  0.51478938E-02
  0.56494918E-02  0.60754145E-02  0.64285306E-02  0.67118971E-02  0.69287338E-02
  0.70823977E-02  0.71763589E-02  0.72141775E-02  0.71994807E-02  0.71359419E-02
  0.70272602E-02  0.68771408E-02  0.66892769E-02  0.64673322E-02  0.62149251E-02
  0.59356134E-02  0.56328802E-02  0.53101212E-02  0.49706328E-02  0.46176015E-02
  0.42540940E-02  0.38830488E-02  0.35072686E-02  0.31294138E-02  0.27519970E-02
  0.23773783E-02  0.20077622E-02  0.16451942E-02  0.12915597E-02  0.94858257E-03
  0.61782549E-03  0.30069028E-03 -0.15805052E-05 -0.28790153E-03 -0.55734188E-03
 -0.80912167E-03 -0.10426081E-02 -0.12573110E-02 -0.14528777E-02 -0.16290881E-02
 -0.17858481E-02 -0.19231842E-02 -0.20412368E-02 -0.21402533E-02 -0.22205814E-02
 -0.22826621E-02 -0.23270223E-02 -0.23542676E-02 -0.23650747E-02 -0.23601845E-02
 -0.23403944E-02 -0.23065511E-02 -0.22595433E-02 -0.22002948E-02 -0.21297576E-02
 -0.20489049E-02 -0.19587247E-02 -0.18602136E-02 -0.17543705E-02 -0.16421911E-02
 -0.15246619E-02 -0.14027555E-02 -0.12774256E-02 -0.11496021E-02 -0.10201872E-02
 -0.89005140E-03 -0.76003002E-03 -0.63091985E-03 -0.50347643E-03 -0.37841155E-03
 -0.25639109E-03 -0.13803323E-03 -0.23907000E-04  0.85468813E-04  0.18962649E-03
  0.28814983E-03  0.38067434E-03  0.46688706E-03  0.54652623E-03  0.61938053E-03
  0.68528822E-03  0.74413595E-03  0.79585734E-03  0.84043144E-03  0.87788092E-03
  0.90827014E-03  0.93170299E-03  0.94832073E-03  0.95829958E-03  0.96184825E-03
  0.95920544E-03  0.95063720E-03  0.93643427E-03  0.91690944E-03  0.89239474E-03
  0.86323885E-03  0.82980431E-03  0.79246490E-03  0.75160302E-03  0.70760707E-03
  0.66086902E-03  0.61178189E-03  0.56073750E-03  0.50812418E-03  0.45432462E-03
  0.39971391E-03  0.34465757E-03  0.28950983E-03  0.23461196E-03  0.18029077E-03
  0.12685727E-03  0.74605412E-04  0.23811014E-04 -0.25269148E-04 -0.72398152E-04
 -0.11735958E-03 -0.15995801E-03 -0.20001939E-03 -0.23739130E-03 -0.27194298E-03
 -0.30356538E-03 -0.33217095E-03 -0.35769341E-03 -0.38008732E-03 -0.39932765E-03
 -0.41540915E-03 -0.42834567E-03 -0.43816941E-03 -0.44493008E-03 -0.44869397E-03
 -0.44954296E-03 -0.44757353E-03 -0.44289563E-03 -0.43563159E-03 -0.42591497E-03
 -0.41388936E-03 -0.39970721E-03 -0.38352861E-03 -0.36552009E-03 -0.34585344E-03
 -0.32470448E-03 -0.30225192E-03 -0.27867622E-03 -0.25415842E-03 -0.22887911E-03
 -0.20301735E-03 -0.17674970E-03 -0.15024925E-03 -0.12368469E-03 -0.97219530E-04
 -0.71011260E-04 -0.45210648E-04 -0.19961070E-04  0.46020851E-05  0.28351949E-04
  0.51170640E-04  0.72949660E-04  0.93590226E-04  0.11300354E-03  0.13111097E-03
  0.14784420E-03  0.16314531E-03  0.17696673E-03  0.18927126E-03  0.20003190E-03
  0.20923172E-03  0.21686361E-03  0.22293004E-03  0.22744272E-03  0.23042226E-03
  0.23189777E-03  0.23190639E-03  0.23049289E-03  0.22770909E-03  0.22361341E-03
  0.21827027E-03  0.21174957E-03  0.20412608E-03  0.19547888E-03  0.18589074E-03
  0.17544754E-03  0.16423768E-03  0.15235147E-03  0.13988054E-03  0.12691729E-03
  0.11355430E-03  0.99883799E-04  0.85997127E-04  0.71984229E-04  0.57933173E-04
  0.43929686E-04  0.30056724E-04  0.16394067E-04  0.30179434E-05 -0.99993102E-05
 -0.22589561E-04 -0.34689157E-04 -0.46239170E-04 -0.57185603E-04 -0.67479570E-04
 -0.77077431E-04 -0.85940900E-04 -0.94037118E-04 -0.10133869E-03 -0.10782370E-03
 -0.11347567E-03 -0.11828352E-03 -0.12224148E-03 -0.12534895E-03 -0.12761042E-03
 -0.12903523E-03 -0.12963745E-03 -0.12943563E-03 -0.12845256E-03 -0.12671507E-03
 -0.12425370E-03 -0.12110249E-03 -0.11729863E-03 -0.11288220E-03 -0.10789581E-03
 -0.10238435E-03 -0.96394615E-04 -0.89975000E-04 -0.83175177E-04 -0.76045771E-04
 -0.68638034E-04 -0.61003540E-04 -0.53193865E-04 -0.45260294E-04 -0.37253525E-04
 -0.29223392E-04 -0.21218592E-04 -0.13286435E-04 -0.54725988E-05  0.21790915E-05
  0.96268761E-05  0.16831250E-04  0.23755136E-04  0.30364044E-04  0.36626201E-04
  0.42512677E-04  0.47997475E-04  0.53057618E-04  0.57673201E-04  0.61827438E-04
  0.65506681E-04  0.68700423E-04  0.71401284E-04  0.73604977E-04  0.75310259E-04
  0.76518866E-04  0.77235429E-04  0.77467380E-04  0.77224842E-04  0.76520505E-04
  0.75369489E-04  0.73789204E-04  0.71799187E-04  0.69420947E-04  0.66677784E-04
  0.63594617E-04  0.60197799E-04  0.56514930E-04  0.52574667E-04  0.48406530E-04
  0.44040714E-04  0.39507890E-04  0.34839024E-04  0.30065181E-04  0.25217343E-04
  0.20326232E-04  0.15422132E-04  0.10534727E-04  0.56929334E-05  0.92475282E-06
 -0.37428736E-05 -0.82841994E-05 -0.12674798E-04 -0.16891676E-04 -0.20913377E-04
 -0.24720074E-04 -0.28293652E-04 -0.31617773E-04 -0.34677938E-04 -0.37461529E-04
 -0.39957845E-04 -0.42158123E-04 -0.44055546E-04 -0.45645245E-04 -0.46924285E-04
 -0.47891639E-04 -0.48548155E-04 -0.48896515E-04 -0.48941174E-04 -0.48688302E-04
 -0.48145708E-04 -0.47322764E-04 -0.46230312E-04 -0.44880572E-04 -0.43287045E-04
 -0.41464401E-04 -0.39428370E-04 -0.37195629E-04 -0.34783685E-04 -0.32210751E-04
 -0.29495625E-04 -0.26657570E-04 -0.23716188E-04 -0.20691297E-04 -0.17602811E-04
 -0.14470619E-04 -0.11314468E-04 -0.81538491E-05 -0.50078878E-05 -0.18952366E-05
  0.11660249E-05  0.41584866E-05  0.70654974E-05  0.98712492E-05  0.12560854E-04
  0.15120414E-04  0.17537085E-04  0.19799132E-04  0.21895977E-04  0.23818240E-04
  0.25557769E-04  0.27107668E-04  0.28462312E-04  0.29617356E-04  0.30569736E-04
  0.31317661E-04  0.31860604E-04  0.32199275E-04  0.32335598E-04  0.32272673E-04
  0.32014735E-04  0.31567111E-04  0.30936162E-04  0.30129231E-04  0.29154576E-04
  0.28021305E-04  0.26739306E-04  0.25319174E-04  0.23772133E-04  0.22109956E-04
  0.20344887E-04  0.18489559E-04  0.16556907E-04  0.14560090E-04  0.12512406E-04
  0.10427209E-04  0.83178299E-05  0.61974948E-05  0.40792498E-05  0.19758849E-05
 -0.10013703E-06 -0.21367498E-05 -0.41223484E-05 -0.60458501E-05 -0.78967516E-05
 -0.96651814E-05 -0.11341947E-04 -0.12918579E-04 -0.14387366E-04 -0.15741390E-04
 -0.16974553E-04 -0.18081596E-04 -0.19058121E-04 -0.19900593E-04 -0.20606356E-04
 -0.21173624E-04 -0.21601483E-04 -0.21889875E-04 -0.22039587E-04 -0.22052229E-04
 -0.21930210E-04 -0.21676710E-04 -0.21295647E-04 -0.20791636E-04 -0.20169955E-04
 -0.19436498E-04 -0.18597729E-04 -0.17660632E-04 -0.16632662E-04 -0.15521689E-04
 -0.14335944E-04 -0.13083964E-04 -0.11774536E-04 -0.10416635E-04 -0.90193718E-05
 -0.75919330E-05 -0.61435246E-05 -0.46833161E-05 -0.32203865E-05 -0.17636703E-05
 -0.32190669E-06  0.10964099E-05  0.24830767E-05  0.38302272E-05  0.51303721E-05
  0.63764386E-05  0.75618054E-05  0.86803347E-05  0.97264010E-05  0.10694916E-04
  0.11581349E-04  0.12381747E-04  0.13092746E-04  0.13711582E-04  0.14236097E-04
  0.14664742E-04  0.14996575E-04  0.15231256E-04  0.15369041E-04  0.15410767E-04
  0.15357838E-04  0.15212207E-04  0.14976354E-04  0.14653265E-04  0.14246399E-04
  0.13759666E-04  0.13197390E-04  0.12564278E-04  0.11865388E-04  0.11106085E-04
  0.10292012E-04  0.94290439E-05  0.85232529E-05  0.75808660E-05  0.66082257E-05
  0.56117493E-05  0.45978893E-05  0.35730936E-05  0.25437668E-05  0.15162322E-05
  0.49669499E-06 -0.50879285E-06 -0.14943669E-05 -0.24543820E-05 -0.33834433E-05
 -0.42764335E-05 -0.51285401E-05 -0.59352784E-05 -0.66925136E-05 -0.73964794E-05
 -0.80437947E-05 -0.86314774E-05 -0.91569556E-05 -0.96180765E-05 -0.10013112E-04
 -0.10340762E-04 -0.10600155E-04 -0.10790846E-04 -0.10912814E-04 -0.10966451E-04
 -0.10952556E-04 -0.10872325E-04 -0.10727330E-04 -0.10519511E-04 -0.10251155E-04
 -0.99248764E-05 -0.95435955E-05 -0.91105170E-05 -0.86291054E-05 -0.81030599E-05
 -0.75362883E-05 -0.69328802E-05 -0.62970792E-05 -0.56332550E-05 -0.49458752E-05
 -0.42394766E-05 -0.35186369E-05 -0.27879467E-05 -0.20519813E-05 -0.13152742E-05
 -0.58228969E-06  0.14260201E-06  0.85514999E-06  0.15512460E-05  0.22269467E-05
  0.28784949E-05  0.35023388E-05  0.40951503E-05  0.46538408E-05  0.51755765E-05
  0.56577908E-05  0.60981956E-05  0.64947906E-05  0.68458704E-05  0.71500304E-05
  0.74061699E-05  0.76134943E-05  0.77715149E-05  0.78800467E-05  0.79392051E-05
  0.79493999E-05  0.79113289E-05  0.78259685E-05  0.76945639E-05  0.75186173E-05
  0.72998750E-05  0.70403130E-05  0.67421214E-05  0.64076884E-05  0.60395829E-05
  0.56405359E-05  0.52134221E-05  0.47612404E-05  0.42870942E-05  0.37941707E-05
  0.32857215E-05  0.27650413E-05  0.22354482E-05  0.17002634E-05  0.11627911E-05
  0.62629925E-06  0.94000748E-07 -0.43096515E-06 -0.94555027E-06 -0.14468144E-05
 -0.19319410E-05 -0.23982525E-05 -0.28432236E-05 -0.32644946E-05 -0.36598827E-05
 -0.40273922E-05 -0.43652239E-05 -0.46717828E-05 -0.49456845E-05 -0.51857603E-05
 -0.53910611E-05 -0.55608596E-05 -0.56946517E-05 -0.57921556E-05 -0.58533112E-05
 -0.58782761E-05 -0.58674223E-05 -0.58213306E-05 -0.57407840E-05 -0.56267602E-05
 -0.54804231E-05 -0.53031128E-05 -0.50963358E-05 -0.48617527E-05 -0.46011669E-05
 -0.43165115E-05 -0.40098361E-05 -0.36832927E-05 -0.33391217E-05 -0.29796372E-05
 -0.26072122E-05 -0.22242637E-05 -0.18332379E-05 -0.14365947E-05 -0.10367936E-05
 -0.63627843E-06 -0.23746344E-06  0.15728077E-06  0.54564072E-06  0.92537305E-06
  0.12943168E-05  0.16504054E-05  0.19916770E-05  0.23162858E-05  0.26225101E-05
  0.29087621E-05  0.31735946E-05  0.34157082E-05  0.36339569E-05  0.38273528E-05
  0.39950698E-05  0.41364466E-05  0.42509879E-05  0.43383657E-05  0.43984189E-05
  0.44311515E-05  0.44367313E-05  0.44154857E-05  0.43678987E-05  0.42946048E-05
  0.41963845E-05  0.40741567E-05  0.39289718E-05  0.37620039E-05  0.35745420E-05
  0.33679807E-05  0.31438109E-05  0.29036094E-05  0.26490283E-05  0.23817844E-05
  0.21036481E-05  0.18164323E-05  0.15219805E-05  0.12221561E-05  0.91883069E-06
  0.61387274E-06  0.30913666E-06  0.64518606E-08 -0.29238787E-06 -0.58563459E-06
 -0.87159605E-06 -0.11486451E-05 -0.14152286E-05 -0.16698757E-05 -0.19112058E-05
 -0.21379351E-05 -0.23488840E-05 -0.25429818E-05 -0.27192727E-05 -0.28769193E-05
 -0.30152067E-05 -0.31335448E-05 -0.32314708E-05 -0.33086499E-05 -0.33648761E-05
 -0.34000717E-05 -0.34142861E-05 -0.34076941E-05 -0.33805934E-05 -0.33334010E-05
 -0.32666497E-05 -0.31809829E-05 -0.30771501E-05 -0.29560006E-05 -0.28184776E-05
 -0.26656108E-05 -0.24985101E-05 -0.23183572E-05 -0.21263979E-05 -0.19239340E-05
 -0.17123147E-05 -0.14929280E-05 -0.12671918E-05 -0.10365450E-05 -0.80243906E-06
 -0.56632840E-06 -0.32966226E-06 -0.93875775E-07  0.13961843E-06  0.36943843E-06
  0.59424098E-06  0.81272909E-06  0.10236593E-05  0.12258485E-05  0.14181804E-05
  0.15996113E-05  0.17691756E-05  0.19259908E-05  0.20692617E-05  0.21982841E-05
  0.23124483E-05  0.24112410E-05  0.24942482E-05  0.25611555E-05  0.26117498E-05
  0.26459186E-05  0.26636501E-05  0.26650316E-05  0.26502483E-05  0.26195806E-05
  0.25734017E-05  0.25121740E-05  0.24364453E-05  0.23468445E-05  0.22440773E-05
  0.21289202E-05  0.20022157E-05  0.18648664E-05  0.17178283E-05  0.15621052E-05
  0.13987413E-05  0.12288151E-05  0.10534322E-05  0.87371810E-06  0.69081164E-06
  0.50585758E-06  0.31999983E-06  0.13437443E-06 -0.49897130E-07 -0.23171458E-06
 -0.41000525E-06 -0.58373023E-06 -0.75189028E-06 -0.91353139E-06 -0.10677500E-05
 -0.12136981E-05 -0.13505872E-05 -0.14776931E-05 -0.15943590E-05 -0.16999988E-05
 -0.17941001E-05 -0.18762262E-05 -0.19460178E-05 -0.20031945E-05 -0.20475556E-05
 -0.20789801E-05 -0.20974269E-05 -0.21029339E-05 -0.20956168E-05 -0.20756678E-05
 -0.20433532E-05 -0.19990112E-05 -0.19430490E-05 -0.18759393E-05 -0.17982170E-05
 -0.17104752E-05 -0.16133606E-05 -0.15075695E-05 -0.13938426E-05 -0.12729603E-05
 -0.11457371E-05 -0.10130168E-05 -0.87566676E-06 -0.73457240E-06 -0.59063168E-06
 -0.44474952E-06 -0.29783221E-06 -0.15078194E-06 -0.44914058E-08  0.14016155E-06
  0.28231902E-06  0.42114802E-06  0.55584524E-06  0.68564157E-06  0.80980634E-06
  0.92765135E-06  0.10385345E-05  0.11418631E-05  0.12370971E-05  0.13237515E-05
  0.14013987E-05  0.14696706E-05  0.15282600E-05  0.15769218E-05  0.16154737E-05
  0.16437968E-05  0.16618353E-05  0.16695964E-05  0.16671491E-05  0.16546238E-05
  0.16322100E-05  0.16001551E-05  0.15587618E-05  0.15083861E-05  0.14494341E-05
  0.13823591E-05  0.13076585E-05  0.12258702E-05  0.11375686E-05  0.10433614E-05
  0.94388473E-06  0.83979951E-06  0.73178704E-06  0.62054468E-06  0.50678137E-06
  0.39121334E-06  0.27455960E-06  0.15753763E-06  0.40859062E-07 -0.74774580E-07
 -0.18867596E-06 -0.30017592E-06 -0.40862733E-06 -0.51340873E-06 -0.61392775E-06
 -0.70962443E-06 -0.79997414E-06 -0.88449040E-06 -0.96272736E-06 -0.10342820E-05
 -0.10987962E-05 -0.11559581E-05 -0.12055039E-05 -0.12472184E-05 -0.12809362E-05
 -0.13065418E-05 -0.13239700E-05 -0.13332054E-05 -0.13342824E-05 -0.13272839E-05
 -0.13123407E-05 -0.12896299E-05 -0.12593735E-05 -0.12218365E-05 -0.11773247E-05
 -0.11261826E-05 -0.10687907E-05 -0.10055631E-05 -0.93694430E-06 -0.86340650E-06
 -0.78544624E-06 -0.70358123E-06 -0.61834701E-06 -0.53029354E-06 -0.43998171E-06
 -0.34797990E-06 -0.25486043E-06 -0.16119614E-06 -0.67556917E-07  0.25493687E-07
  0.11740176E-06  0.20762625E-06  0.29564205E-06  0.38094301E-06  0.46304472E-06
  0.54148720E-06  0.61583737E-06  0.68569139E-06  0.75067671E-06  0.81045401E-06
  0.86471883E-06  0.91320306E-06  0.95567610E-06  0.99194588E-06  0.10218596E-05
  0.10453041E-05  0.10622065E-05  0.10725335E-05  0.10762918E-05  0.10735275E-05
  0.10643252E-05  0.10488072E-05  0.10271324E-05  0.99949492E-06  0.96612253E-06
  0.92727507E-06  0.88324244E-06  0.83434259E-06  0.78091932E-06  0.72333996E-06
   16.2516435017787      T
 Non local Part
           1           2   1.23968979475178     
   3.26445337949595       -12.8615304351162       -12.8615304351162     
   10.8745925861614     
 Reciprocal Space Part
  0.00000000E+00  0.16124618E+00  0.32230821E+00  0.48300117E+00  0.64313850E+00
  0.80253088E+00  0.96098485E+00  0.11183010E+01  0.12742718E+01  0.14286790E+01
  0.15812905E+01  0.17318569E+01  0.18801079E+01  0.20257484E+01  0.21684543E+01
  0.23078695E+01  0.24436015E+01  0.25752195E+01  0.27022518E+01  0.28241845E+01
  0.29404624E+01  0.30504895E+01  0.31536324E+01  0.32492248E+01  0.33365736E+01
  0.34149668E+01  0.34836831E+01  0.35420029E+01  0.35892208E+01  0.36246598E+01
  0.36476853E+01  0.36577211E+01  0.36542646E+01  0.36369026E+01  0.36053267E+01
  0.35593469E+01  0.34989048E+01  0.34240852E+01  0.33351244E+01  0.32324173E+01
  0.31165214E+01  0.29881571E+01  0.28482060E+01  0.26977047E+01  0.25378364E+01
  0.23699180E+01  0.21953855E+01  0.20157755E+01  0.18327039E+01  0.16478435E+01
  0.14628989E+01  0.12795801E+01  0.10995760E+01  0.92452730E+00  0.75599944E+00
  0.59545745E+00  0.44424162E+00  0.30354562E+00  0.17439719E+00  0.57641919E-01
 -0.46069514E-01 -0.13629036E+00 -0.21278282E+00 -0.27551894E+00 -0.32467744E+00
 -0.36063645E+00 -0.38396239E+00 -0.39539519E+00 -0.39583027E+00 -0.38629768E+00
 -0.36793885E+00 -0.34198152E+00 -0.30971348E+00 -0.27245561E+00 -0.23153499E+00
 -0.18825854E+00 -0.14388785E+00 -0.99615792E-01 -0.56545291E-01 -0.15670812E-01
  0.22137141E-01  0.56144212E-01  0.85760868E-01  0.11054747E+00  0.13021568E+00
  0.14462642E+00  0.15378428E+00  0.15782895E+00  0.15702374E+00  0.15174165E+00
  0.14244949E+00  0.12969038E+00  0.11406526E+00  0.96213822E-01  0.76795449E-01
  0.56470545E-01  0.35882823E-01  0.15642919E-01 -0.36862935E-02 -0.21602370E-01
 Real Space Part
  0.00000000E+00  0.62233043E+00  0.12426025E+01  0.18587653E+01  0.24687836E+01
  0.30706446E+01  0.36623661E+01  0.42420037E+01  0.48076577E+01  0.53574809E+01
  0.58896850E+01  0.64025476E+01  0.68944185E+01  0.73637262E+01  0.78089838E+01
  0.82287949E+01  0.86218588E+01  0.89869754E+01  0.93230508E+01  0.96291007E+01
  0.99042552E+01  0.10147762E+02  0.10358990E+02  0.10537432E+02  0.10682707E+02
  0.10794563E+02  0.10872877E+02  0.10917658E+02  0.10929045E+02  0.10907313E+02
  0.10852863E+02  0.10766233E+02  0.10648087E+02  0.10499219E+02  0.10320548E+02
  0.10113117E+02  0.98780884E+01  0.96167432E+01  0.93304731E+01  0.90207784E+01
  0.86892616E+01  0.83376225E+01  0.79676512E+01  0.75812220E+01  0.71802857E+01
  0.67668619E+01  0.63430308E+01  0.59109239E+01  0.54727151E+01  0.50306104E+01
  0.45868376E+01  0.41436354E+01  0.37032421E+01  0.32678836E+01  0.28397614E+01
  0.24210400E+01  0.20138338E+01  0.16201946E+01  0.12420977E+01  0.88142916E+00
  0.53997199E+00  0.21939336E+00 -0.78768481E-01 -0.35311676E+00 -0.60240825E+00
 -0.82556466E+00 -0.10216833E+01 -0.11900468E+01 -0.13301317E+01 -0.14416156E+01
 -0.15243834E+01 -0.15785319E+01 -0.16043721E+01 -0.16024304E+01 -0.15734481E+01
 -0.15183785E+01 -0.14383822E+01 -0.13348201E+01 -0.12092458E+01 -0.10633942E+01
 -0.89916924E+00 -0.71863177E+00 -0.52399078E+00 -0.31752520E+00 -0.10109538E+00
  0.12010781E+00  0.31021705E+00  0.34876164E+00  0.38504200E+00  0.40754418E+00
  0.41630274E+00  0.41159592E+00  0.39350834E+00  0.36223299E+00  0.31806712E+00
  0.26132149E+00  0.19239019E+00  0.11367947E+00  0.14387625E-01  0.00000000E+00
 Reciprocal Space Part
  0.00000000E+00  0.56552992E+00  0.11238697E+01  0.16679141E+01  0.21907264E+01
  0.26856216E+01  0.31462459E+01  0.35666544E+01  0.39413840E+01  0.42655225E+01
  0.45347711E+01  0.47455022E+01  0.48948081E+01  0.49805442E+01  0.50013613E+01
  0.49567301E+01  0.48469555E+01  0.46731799E+01  0.44373763E+01  0.41423294E+01
  0.37916064E+01  0.33895155E+01  0.29410538E+01  0.24518443E+01  0.19280626E+01
  0.13763547E+01  0.80374545E+00  0.21754117E+00 -0.37477475E+00 -0.96564986E+00
 -0.15475735E+01 -0.21131881E+01 -0.26554000E+01 -0.31674867E+01 -0.36431990E+01
 -0.40768570E+01 -0.44634367E+01 -0.47986464E+01 -0.50789913E+01 -0.53018246E+01
 -0.54653843E+01 -0.55688150E+01 -0.56121731E+01 -0.55964171E+01 -0.55233813E+01
 -0.53957339E+01 -0.52169208E+01 -0.49910957E+01 -0.47230373E+01 -0.44180563E+01
 -0.40818937E+01 -0.37206119E+01 -0.33404812E+01 -0.29478647E+01 -0.25491024E+01
 -0.21503984E+01 -0.17577125E+01 -0.13766588E+01 -0.10124131E+01 -0.66963123E+00
 -0.35237956E+00 -0.64078731E-01  0.19253774E+00  0.41544999E+00  0.60336295E+00
  0.75570224E+00  0.87259530E+00  0.95483839E+00  0.10038506E+01  0.10216165E+01
  0.10106183E+01  0.97375993E+00  0.91428540E+00  0.83569201E+00  0.74164206E+00
  0.63587431E+00  0.52211753E+00  0.40400793E+00  0.28501248E+00  0.16835945E+00
  0.56977807E-01 -0.46553557E-01 -0.14004592E+00 -0.22172951E+00 -0.29027080E+00
 -0.34477832E+00 -0.38479734E+00 -0.41029394E+00 -0.42162951E+00 -0.41952651E+00
 -0.40502689E+00 -0.37944452E+00 -0.34431314E+00 -0.30133135E+00 -0.25230621E+00
 -0.19909711E+00 -0.14356120E+00 -0.87501924E-01 -0.32621786E-01  0.19519517E-01
 Real Space Part
  0.00000000E+00 -0.10461820E+01 -0.20879642E+01 -0.31209658E+01 -0.41408433E+01
 -0.51433095E+01 -0.61241515E+01 -0.70792491E+01 -0.80045928E+01 -0.88963003E+01
 -0.97506346E+01 -0.10564019E+02 -0.11333055E+02 -0.12054535E+02 -0.12725458E+02
 -0.13343044E+02 -0.13904746E+02 -0.14408260E+02 -0.14851542E+02 -0.15232811E+02
 -0.15550564E+02 -0.15803581E+02 -0.15990931E+02 -0.16111984E+02 -0.16166407E+02
 -0.16154175E+02 -0.16075570E+02 -0.15931184E+02 -0.15721917E+02 -0.15448976E+02
 -0.15113874E+02 -0.14718425E+02 -0.14264738E+02 -0.13755214E+02 -0.13192532E+02
 -0.12579646E+02 -0.11919770E+02 -0.11216367E+02 -0.10473137E+02 -0.96940018E+01
 -0.88830864E+01 -0.80447044E+01 -0.71833376E+01 -0.63036163E+01 -0.54102969E+01
 -0.45082400E+01 -0.36023855E+01 -0.26977276E+01 -0.17992879E+01 -0.91208853E+00
 -0.41122859E-01  0.80867351E+00  0.16324532E+01  0.24254878E+01  0.31831989E+01
  0.39011904E+01  0.45752793E+01  0.52015277E+01  0.57762740E+01  0.62961630E+01
  0.67581757E+01  0.71596573E+01  0.74983444E+01  0.77723889E+01  0.79803812E+01
  0.81213699E+01  0.81948784E+01  0.82009190E+01  0.81400027E+01  0.80131453E+01
  0.78218697E+01  0.75682034E+01  0.72546718E+01  0.68842862E+01  0.64605284E+01
  0.59873300E+01  0.54690466E+01  0.49104277E+01  0.43165852E+01  0.36929527E+01
  0.30452467E+01  0.23794252E+01  0.17016635E+01  0.10181291E+01  0.33359231E+00
 -0.33787723E+00 -0.89506830E+00 -0.10087138E+01 -0.11165596E+01 -0.11847321E+01
 -0.12130263E+01 -0.12019746E+01 -0.11515742E+01 -0.10621669E+01 -0.93442822E+00
 -0.76909874E+00 -0.56719054E+00 -0.33569636E+00 -0.42532530E-01  0.00000000E+00
 Non local Part
           2           2   1.23968979475178     
   36.3291482797036        35.2674917009766        35.2674917009766     
   34.2372039340646     
 Reciprocal Space Part
  0.00000000E+00 -0.19360682E+00 -0.76878335E+00 -0.17087363E+01 -0.29859353E+01
 -0.45627883E+01 -0.63925644E+01 -0.84205411E+01 -0.10585347E+02 -0.12820470E+02
 -0.15055889E+02 -0.17219798E+02 -0.19240366E+02 -0.21047515E+02 -0.22574637E+02
 -0.23760250E+02 -0.24549519E+02 -0.24895625E+02 -0.24760942E+02 -0.24118003E+02
 -0.22950217E+02 -0.21252340E+02 -0.19030674E+02 -0.16303006E+02 -0.13098269E+02
 -0.94559616E+01 -0.54253152E+01 -0.10642508E+01  0.35618613E+01  0.83816026E+01
  0.13319035E+02  0.18295323E+02  0.23230401E+02  0.28044664E+02  0.32660623E+02
  0.37004504E+02  0.41007736E+02  0.44608320E+02  0.47752024E+02  0.50393399E+02
  0.52496577E+02  0.54035861E+02  0.54996071E+02  0.55372665E+02  0.55171616E+02
  0.54409077E+02  0.53110820E+02  0.51311496E+02  0.49053701E+02  0.46386916E+02
  0.43366314E+02  0.40051478E+02  0.36505070E+02  0.32791468E+02  0.28975409E+02
  0.25120677E+02  0.21288847E+02  0.17538132E+02  0.13922339E+02  0.10489970E+02
  0.72834651E+01  0.43386193E+01  0.16841662E+01 -0.65846209E+00 -0.26752019E+01
 -0.43592566E+01 -0.57108372E+01 -0.67367569E+01 -0.74498968E+01 -0.78685596E+01
 -0.80157337E+01 -0.79182879E+01 -0.76061212E+01 -0.71112880E+01 -0.64671241E+01
 -0.57073925E+01 -0.48654703E+01 -0.39735936E+01 -0.30621773E+01 -0.21592217E+01
 -0.12898164E+01 -0.47574845E+00  0.26478069E+00  0.91732910E+00  0.14712807E+01
  0.19198087E+01  0.22597430E+01  0.24913518E+01  0.26180464E+01  0.26460248E+01
  0.25838641E+01  0.24420790E+01  0.22326580E+01  0.19685938E+01  0.16634191E+01
  0.13307618E+01  0.98393038E+00  0.63553873E+00  0.29717947E+00 -0.20848955E-01
 Real Space Part
  0.00000000E+00  0.21090509E+00  0.84233676E+00  0.18904506E+01  0.33488602E+01
  0.52086688E+01  0.74585130E+01  0.10084619E+02  0.13070870E+02  0.16398889E+02
  0.20048126E+02  0.23995966E+02  0.28217838E+02  0.32687343E+02  0.37376385E+02
  0.42255319E+02  0.47293100E+02  0.52457446E+02  0.57715007E+02  0.63031545E+02
  0.68372112E+02  0.73701242E+02  0.78983149E+02  0.84181920E+02  0.89261724E+02
  0.94187016E+02  0.98922744E+02  0.10343456E+03  0.10768904E+03  0.11165387E+03
  0.11529808E+03  0.11859224E+03  0.12150866E+03  0.12402159E+03  0.12610741E+03
  0.12774485E+03  0.12891510E+03  0.12960204E+03  0.12979240E+03  0.12947584E+03
  0.12864517E+03  0.12729643E+03  0.12542899E+03  0.12304566E+03  0.12015271E+03
  0.11676002E+03  0.11288098E+03  0.10853260E+03  0.10373544E+03  0.98513561E+02
  0.92894469E+02  0.86909008E+02  0.80591224E+02  0.73978202E+02  0.67109871E+02
  0.60028776E+02  0.52779819E+02  0.45409963E+02  0.37967906E+02  0.30503727E+02
  0.23068494E+02  0.15713852E+02  0.84915760E+01  0.14531099E+01 -0.53509229E+01
 -0.11871220E+02 -0.18060313E+02 -0.23873088E+02 -0.29267304E+02 -0.34204110E+02
 -0.38648545E+02 -0.42570027E+02 -0.45942807E+02 -0.48746399E+02 -0.50965967E+02
 -0.52592670E+02 -0.53623949E+02 -0.54063758E+02 -0.53922749E+02 -0.53218361E+02
 -0.51974863E+02 -0.50223330E+02 -0.48001505E+02 -0.45353667E+02 -0.42330326E+02
 -0.38987961E+02 -0.35388581E+02 -0.31599340E+02 -0.27691984E+02 -0.23742348E+02
 -0.19829749E+02 -0.16036353E+02 -0.12446564E+02 -0.91463097E+01 -0.62223703E+01
 -0.37618246E+01 -0.18512196E+01 -0.57243979E+00 -0.29169978E-01  0.00000000E+00
 Reciprocal Space Part
  0.00000000E+00  0.19724722E+00  0.78343651E+00  0.17420453E+01  0.30459814E+01
  0.46582397E+01  0.65327989E+01  0.86157368E+01  0.10846537E+02  0.13159554E+02
  0.15485605E+02  0.17753645E+02  0.19892487E+02  0.21832527E+02  0.23507433E+02
  0.24855753E+02  0.25822411E+02  0.26360048E+02  0.26430183E+02  0.26004168E+02
  0.25063902E+02  0.23602314E+02  0.21623574E+02  0.19143056E+02  0.16187039E+02
  0.12792157E+02  0.90046213E+01  0.48792279E+01  0.47817210E+00 -0.41302897E+01
 -0.88733082E+01 -0.13674998E+02 -0.18458052E+02 -0.23145363E+02 -0.27661635E+02
 -0.31934926E+02 -0.35898105E+02 -0.39490174E+02 -0.42657451E+02 -0.45354556E+02
 -0.47545218E+02 -0.49202857E+02 -0.50310949E+02 -0.50863165E+02 -0.50863287E+02
 -0.50324907E+02 -0.49270916E+02 -0.47732814E+02 -0.45749841E+02 -0.43367975E+02
 -0.40638800E+02 -0.37618297E+02 -0.34365575E+02 -0.30941565E+02 -0.27407731E+02
 -0.23824804E+02 -0.20251585E+02 -0.16743824E+02 -0.13353218E+02 -0.10126533E+02
 -0.71048724E+01 -0.43230964E+01 -0.18094108E+01  0.41488152E+00  0.23354631E+01
  0.39449231E+01  0.52425271E+01  0.62338472E+01  0.69302669E+01  0.73483792E+01
  0.75092961E+01  0.74378914E+01  0.71619977E+01  0.67115792E+01  0.61179021E+01
  0.54127233E+01  0.46275148E+01  0.37927436E+01  0.29372203E+01  0.20875285E+01
  0.12675475E+01  0.49807165E+00 -0.20346640E+00 -0.82316952E+00 -0.13507475E+01
 -0.17794905E+01 -0.21061513E+01 -0.23307448E+01 -0.24562751E+01 -0.24884022E+01
 -0.24350609E+01 -0.23060450E+01 -0.21125708E+01 -0.18668332E+01 -0.15815664E+01
 -0.12696223E+01 -0.94357633E+00 -0.61537061E+00 -0.29600195E+00  0.47393484E-02
 Real Space Part
  0.00000000E+00 -0.19450820E+00 -0.77683601E+00 -0.17433989E+01 -0.30882425E+01
 -0.48030721E+01 -0.68772938E+01 -0.92980673E+01 -0.12050370E+02 -0.15117073E+02
 -0.18479025E+02 -0.22115153E+02 -0.26002563E+02 -0.30116664E+02 -0.34431289E+02
 -0.38918830E+02 -0.43550386E+02 -0.48295910E+02 -0.53124370E+02 -0.58003917E+02
 -0.62902052E+02 -0.67785808E+02 -0.72621932E+02 -0.77377071E+02 -0.82017962E+02
 -0.86511630E+02 -0.90825576E+02 -0.94927979E+02 -0.98787891E+02 -0.10237543E+03
 -0.10566200E+03 -0.10862042E+03 -0.11122521E+03 -0.11345267E+03 -0.11528116E+03
 -0.11669119E+03 -0.11766565E+03 -0.11818992E+03 -0.11825205E+03 -0.11784288E+03
 -0.11695617E+03 -0.11558873E+03 -0.11374046E+03 -0.11141451E+03 -0.10861727E+03
 -0.10535846E+03 -0.10165111E+03 -0.97511630E+02 -0.92959707E+02 -0.88018313E+02
 -0.82713609E+02 -0.77074855E+02 -0.71134272E+02 -0.64926896E+02 -0.58490379E+02
 -0.51864781E+02 -0.45092319E+02 -0.38217085E+02 -0.31284741E+02 -0.24342182E+02
 -0.17437165E+02 -0.10617923E+02 -0.39327434E+01  0.25704671E+01  0.88446392E+01
  0.14844011E+02  0.20524607E+02  0.25844727E+02  0.30765425E+02  0.35250995E+02
  0.39269432E+02  0.42792887E+02  0.45798087E+02  0.48266731E+02  0.50185841E+02
  0.51548087E+02  0.52352038E+02  0.52602370E+02  0.52310041E+02  0.51492346E+02
  0.50172966E+02  0.48381922E+02  0.46155445E+02  0.43535836E+02  0.40571176E+02
  0.37315072E+02  0.33826233E+02  0.30168110E+02  0.26408366E+02  0.22618403E+02
  0.18872788E+02  0.15248660E+02  0.11825151E+02  0.86827203E+01  0.59025274E+01
  0.35659124E+01  0.17536229E+01  0.54191372E+00  0.27602144E-01  0.00000000E+00
 Non local Part
           0           2   1.23968979475178     
   3.50155675984742        7.28589573120157        7.28589573120157     
   15.2064847821286     
 Reciprocal Space Part
 -0.52664784E+01 -0.56004076E+01 -0.65960669E+01 -0.82351905E+01 -0.10487731E+02
 -0.13312445E+02 -0.16657690E+02 -0.20462432E+02 -0.24657416E+02 -0.29166504E+02
 -0.33908129E+02 -0.38796850E+02 -0.43744964E+02 -0.48664155E+02 -0.53467128E+02
 -0.58069218E+02 -0.62389919E+02 -0.66354316E+02 -0.69894392E+02 -0.72950176E+02
 -0.75470724E+02 -0.77414902E+02 -0.78751973E+02 -0.79461959E+02 -0.79535801E+02
 -0.78975296E+02 -0.77792822E+02 -0.76010874E+02 -0.73661402E+02 -0.70784991E+02
 -0.67429887E+02 -0.63650908E+02 -0.59508246E+02 -0.55066211E+02 -0.50391923E+02
 -0.45553997E+02 -0.40621233E+02 -0.35661358E+02 -0.30739819E+02 -0.25918678E+02
 -0.21255604E+02 -0.16803000E+02 -0.12607261E+02 -0.87081840E+01 -0.51385429E+01
 -0.19238102E+01  0.91795362E+00  0.33760586E+01  0.54469958E+01  0.71341104E+01
  0.84471514E+01  0.94017112E+01  0.10018575E+02  0.10322995E+02  0.10343915E+02
  0.10113153E+02  0.96645778E+01  0.90332868E+01  0.82548044E+01  0.73643230E+01
  0.63959965E+01  0.53823024E+01  0.43534811E+01  0.33370621E+01  0.23574828E+01
  0.14358025E+01  0.58951358E+00 -0.16755220E+00 -0.82522587E+00 -0.13769176E+01
 -0.18194547E+01 -0.21528500E+01 -0.23800116E+01 -0.25064037E+01 -0.25396714E+01
 -0.24892405E+01 -0.23659050E+01 -0.21814118E+01 -0.19480555E+01 -0.16782917E+01
 -0.13843778E+01 -0.10780489E+01 -0.77023474E+00 -0.47082190E+00 -0.18846485E+00
  0.69552960E-01  0.29740797E+00  0.49077634E+00  0.64682760E+00  0.76417553E+00
  0.84279107E+00  0.88388243E+00  0.88974849E+00  0.86361159E+00  0.80943624E+00
  0.73174015E+00  0.63540364E+00  0.52548339E+00  0.40703560E+00  0.28495347E+00
 Real Space Part
 -0.20881400E+03 -0.20875195E+03 -0.20856568E+03 -0.20825482E+03 -0.20781880E+03
 -0.20725680E+03 -0.20656779E+03 -0.20575053E+03 -0.20480360E+03 -0.20372539E+03
 -0.20251414E+03 -0.20116795E+03 -0.19968483E+03 -0.19806267E+03 -0.19629932E+03
 -0.19439261E+03 -0.19234035E+03 -0.19014042E+03 -0.18779073E+03 -0.18528935E+03
 -0.18263447E+03 -0.17982447E+03 -0.17685799E+03 -0.17373390E+03 -0.17045144E+03
 -0.16701018E+03 -0.16341011E+03 -0.15965166E+03 -0.15573579E+03 -0.15166397E+03
 -0.14743827E+03 -0.14306139E+03 -0.13853670E+03 -0.13386828E+03 -0.12906095E+03
 -0.12412032E+03 -0.11905281E+03 -0.11386567E+03 -0.10856701E+03 -0.10316584E+03
 -0.97672033E+02 -0.92096379E+02 -0.86450557E+02 -0.80747132E+02 -0.74999546E+02
 -0.69222085E+02 -0.63429851E+02 -0.57638716E+02 -0.51865269E+02 -0.46126752E+02
 -0.40440983E+02 -0.34826273E+02 -0.29301324E+02 -0.23885126E+02 -0.18596828E+02
 -0.13455616E+02 -0.84805642E+01 -0.36904882E+01  0.89621736E+00  0.52617449E+01
  0.93890480E+01  0.13262019E+02  0.16865670E+02  0.20186314E+02  0.23211741E+02
  0.25931398E+02  0.28336550E+02  0.30420441E+02  0.32178440E+02  0.33608162E+02
  0.34709589E+02  0.35485149E+02  0.35939790E+02  0.36081010E+02  0.35918872E+02
  0.35465993E+02  0.34737482E+02  0.33750868E+02  0.32525992E+02  0.31084857E+02
  0.29451466E+02  0.27651622E+02  0.25712699E+02  0.23663410E+02  0.21533527E+02
  0.19353620E+02  0.17154747E+02  0.14968177E+02  0.12825075E+02  0.10756210E+02
  0.87916669E+01  0.69605593E+01  0.52907654E+01  0.38086792E+01  0.25389729E+01
  0.15044351E+01  0.72575203E+00  0.22018441E+00  0.10153242E-01  0.00000000E+00
 Reciprocal Space Part
  0.11734081E+02  0.11865859E+02  0.12258613E+02  0.12904658E+02  0.13791352E+02
  0.14901351E+02  0.16212954E+02  0.17700525E+02  0.19335007E+02  0.21084488E+02
  0.22914829E+02  0.24790326E+02  0.26674402E+02  0.28530310E+02  0.30321835E+02
  0.32013971E+02  0.33573582E+02  0.34970002E+02  0.36175589E+02  0.37166212E+02
  0.37921658E+02  0.38425958E+02  0.38667623E+02  0.38639795E+02  0.38340290E+02
  0.37771564E+02  0.36940578E+02  0.35858584E+02  0.34540823E+02  0.33006164E+02
  0.31276666E+02  0.29377101E+02  0.27334427E+02  0.25177238E+02  0.22935193E+02
  0.20638443E+02  0.18317066E+02  0.16000522E+02  0.13717130E+02  0.11493600E+02
  0.93546004E+01  0.73223851E+01  0.54164863E+01  0.36534692E+01  0.20467570E+01
  0.60652685E+00 -0.66032580E+00 -0.17501544E+01 -0.26624645E+01 -0.33997574E+01
 -0.39673204E+01 -0.43729700E+01 -0.46267562E+01 -0.47406358E+01 -0.47281232E+01
 -0.46039284E+01 -0.43835888E+01 -0.40831054E+01 -0.37185896E+01 -0.33059296E+01
 -0.28604806E+01 -0.23967869E+01 -0.19283386E+01 -0.14673678E+01 -0.10246853E+01
 -0.60956155E+00 -0.22964879E+00  0.10905325E+00  0.40219182E+00  0.64701760E+00
  0.84230688E+00  0.98825330E+00  0.10863339E+01  0.11391545E+01  0.11502791E+01
  0.11240495E+01  0.10653995E+01  0.97966875E+00  0.87242202E+00  0.74927654E+00
  0.61574272E+00  0.47708064E+00  0.33817517E+00  0.20343172E+00  0.76693794E-01
 -0.38816980E-01 -0.14053835E+00 -0.22658319E+00 -0.29573465E+00 -0.34742234E+00
 -0.38168175E+00 -0.39909920E+00 -0.40074511E+00 -0.38809827E+00 -0.36296408E+00
 -0.32738957E+00 -0.28357802E+00 -0.23380558E+00 -0.18034242E+00 -0.12538041E+00
 Real Space Part
  0.99550483E+02  0.99521994E+02  0.99436469E+02  0.99293742E+02  0.99093534E+02
  0.98835463E+02  0.98519041E+02  0.98143684E+02  0.97708717E+02  0.97213381E+02
  0.96656843E+02  0.96038204E+02  0.95356511E+02  0.94610768E+02  0.93799951E+02
  0.92923017E+02  0.91978925E+02  0.90966647E+02  0.89885187E+02  0.88733597E+02
  0.87510994E+02  0.86216582E+02  0.84849668E+02  0.83409685E+02  0.81896207E+02
  0.80308975E+02  0.78647915E+02  0.76913159E+02  0.75105067E+02  0.73224245E+02
  0.71271568E+02  0.69248197E+02  0.67155603E+02  0.64995580E+02  0.62770264E+02
  0.60482150E+02  0.58134107E+02  0.55729387E+02  0.53271642E+02  0.50764926E+02
  0.48213705E+02  0.45622862E+02  0.42997690E+02  0.40343899E+02  0.37667599E+02
  0.34975298E+02  0.32273881E+02  0.29570594E+02  0.26873021E+02  0.24189050E+02
  0.21526847E+02  0.18894810E+02  0.16301527E+02  0.13755731E+02  0.11266239E+02
  0.88418952E+01  0.64915075E+01  0.42237777E+01  0.20472283E+01 -0.29873317E-01
 -0.19995946E+01 -0.38544191E+01 -0.55873295E+01 -0.71918904E+01 -0.86623306E+01
 -0.99936238E+01 -0.11181566E+02 -0.12222846E+02 -0.13115119E+02 -0.13857057E+02
 -0.14448408E+02 -0.14890037E+02 -0.15183954E+02 -0.15333338E+02 -0.15342539E+02
 -0.15217076E+02 -0.14963614E+02 -0.14589929E+02 -0.14104865E+02 -0.13518260E+02
 -0.12840882E+02 -0.12084333E+02 -0.11260949E+02 -0.10383695E+02 -0.94660379E+01
 -0.85218277E+01 -0.75651583E+01 -0.66102391E+01 -0.56712535E+01 -0.47622261E+01
 -0.38968884E+01 -0.30885498E+01 -0.23499755E+01 -0.16932722E+01 -0.11297789E+01
 -0.66999164E+00 -0.32346255E+00 -0.98207659E-01 -0.45256152E-02  0.00000000E+00
 PAW radial sets
         355  0.957730215335708     
(5E20.12)                                
 augmentation charges (non sperical)
  0.668540551823E+00 -0.302807806201E+00  0.573000550851E+00  0.562614947827E+00 -0.199323242896E+00
 -0.406979695315E+00 -0.302807806201E+00  0.828920012497E-01 -0.204300018843E+00 -0.202316042639E+00
  0.166680970996E-01  0.273303087959E-01  0.573000550851E+00 -0.204300018843E+00  0.575805431881E+00
  0.567482351355E+00 -0.117456978271E+00 -0.230539205854E+00  0.562614947827E+00 -0.202316042639E+00
  0.567482351355E+00  0.559219781969E+00 -0.118101311665E+00 -0.232073913350E+00 -0.199323242896E+00
  0.166680970996E-01 -0.117456978271E+00 -0.118101311665E+00 -0.287291871416E-01 -0.685700343402E-01
 -0.406979695315E+00  0.273303087959E-01 -0.230539205854E+00 -0.232073913350E+00 -0.685700343402E-01
 -0.161773019368E+00
 uccopancies in atom
  0.199999999995E+01  0.000000000000E+00  0.000000000000E+00  0.000000000000E+00  0.000000000000E+00
  0.000000000000E+00  0.000000000000E+00  0.000000000000E+00  0.000000000000E+00  0.000000000000E+00
  0.000000000000E+00  0.000000000000E+00  0.000000000000E+00  0.000000000000E+00  0.119999999775E+01
  0.000000000000E+00  0.000000000000E+00  0.000000000000E+00  0.000000000000E+00  0.000000000000E+00
  0.000000000000E+00  0.000000000000E+00  0.000000000000E+00  0.000000000000E+00  0.000000000000E+00
  0.000000000000E+00  0.000000000000E+00  0.000000000000E+00  0.100000000176E+01  0.000000000000E+00
  0.000000000000E+00  0.000000000000E+00  0.000000000000E+00  0.000000000000E+00  0.000000000000E+00
  0.000000000000E+00
 grid
  0.441821740151E-04  0.456188680930E-04  0.471022798782E-04  0.486339285140E-04  0.502153825425E-04
  0.518482615107E-04  0.535342376294E-04  0.552750374856E-04  0.570724438102E-04  0.589282973046E-04
  0.608444985248E-04  0.628230098284E-04  0.648658573838E-04  0.669751332454E-04  0.691529974960E-04
  0.714016804590E-04  0.737234849821E-04  0.761207887961E-04  0.785960469496E-04  0.811517943232E-04
  0.837906482257E-04  0.865153110739E-04  0.893285731607E-04  0.922333155123E-04  0.952325128388E-04
  0.983292365803E-04  0.101526658052E-03  0.104828051694E-03  0.108236798421E-03  0.111756389088E-03
  0.115390428063E-03  0.119142636920E-03  0.123016858248E-03  0.127017059589E-03  0.131147337498E-03
  0.135411921741E-03  0.139815179624E-03  0.144361620469E-03  0.149055900229E-03  0.153902826255E-03
  0.158907362225E-03  0.164074633219E-03  0.169409930975E-03  0.174918719304E-03  0.180606639687E-03
  0.186479517051E-03  0.192543365736E-03  0.198804395653E-03  0.205269018643E-03  0.211943855046E-03
  0.218835740477E-03  0.225951732829E-03  0.233299119500E-03  0.240885424856E-03  0.248718417936E-03
  0.256806120411E-03  0.265156814794E-03  0.273779052926E-03  0.282681664732E-03  0.291873767264E-03
  0.301364774040E-03  0.311164404678E-03  0.321282694858E-03  0.331730006593E-03  0.342517038842E-03
  0.353654838470E-03  0.365154811556E-03  0.377028735078E-03  0.389288768971E-03  0.401947468581E-03
  0.415017797523E-03  0.428513140955E-03  0.442447319290E-03  0.456834602342E-03  0.471689723947E-03
  0.487027897048E-03  0.502864829274E-03  0.519216739028E-03  0.536100372094E-03  0.553533018787E-03
  0.571532531662E-03  0.590117343793E-03  0.609306487650E-03  0.629119614595E-03  0.649577015000E-03
  0.670699639031E-03  0.692509118101E-03  0.715027787023E-03  0.738278706881E-03  0.762285688649E-03
  0.787073317573E-03  0.812666978353E-03  0.839092881133E-03  0.866378088347E-03  0.894550542431E-03
  0.923639094440E-03  0.953673533593E-03  0.984684617781E-03  0.101670410506E-02  0.104976478619E-02
  0.108390051820E-02  0.111914625905E-02  0.115553810346E-02  0.119311331987E-02  0.123191038858E-02
  0.127196904118E-02  0.131333030122E-02  0.135603652626E-02  0.140013145120E-02  0.144566023309E-02
  0.149266949739E-02  0.154120738569E-02  0.159132360503E-02  0.164306947880E-02  0.169649799929E-02
  0.175166388198E-02  0.180862362156E-02  0.186743554977E-02  0.192815989516E-02  0.199085884478E-02
  0.205559660783E-02  0.212243948143E-02  0.219145591853E-02  0.226271659799E-02  0.233629449696E-02
  0.241226496566E-02  0.249070580448E-02  0.257169734369E-02  0.265532252571E-02  0.274166699003E-02
  0.283081916092E-02  0.292287033800E-02  0.301791478972E-02  0.311604984991E-02  0.321737601744E-02
  0.332199705915E-02  0.343002011615E-02  0.354155581347E-02  0.365671837342E-02  0.377562573253E-02
  0.389839966232E-02  0.402516589402E-02  0.415605424733E-02  0.429119876337E-02  0.443073784192E-02
  0.457481438320E-02  0.472357593418E-02  0.487717483967E-02  0.503576839840E-02  0.519951902401E-02
  0.536859441145E-02  0.554316770871E-02  0.572341769408E-02  0.590952895932E-02  0.610169209860E-02
  0.630010390379E-02  0.650496756590E-02  0.671649288324E-02  0.693489647620E-02  0.716040200915E-02
  0.739324041947E-02  0.763365015403E-02  0.788187741342E-02  0.813817640402E-02  0.840280959841E-02
  0.867604800411E-02  0.895817144111E-02  0.924946882847E-02  0.955023848017E-02  0.986078841061E-02
  0.101814366501E-01  0.105125115703E-01  0.108543522211E-01  0.112073086770E-01  0.115717423964E-01
  0.119480265912E-01  0.123365466092E-01  0.127377003290E-01  0.131518985671E-01  0.135795654985E-01
  0.140211390916E-01  0.144770715564E-01  0.149478298076E-01  0.154338959426E-01  0.159357677358E-01
  0.164539591477E-01  0.169890008516E-01  0.175414407769E-01  0.181118446704E-01  0.187007966756E-01
  0.193088999307E-01  0.199367771866E-01  0.205850714446E-01  0.212544466145E-01  0.219455881950E-01
  0.226592039756E-01  0.233960247611E-01  0.241568051203E-01  0.249423241590E-01  0.257533863172E-01
  0.265908221934E-01  0.274554893951E-01  0.283482734172E-01  0.292700885484E-01  0.302218788080E-01
  0.312046189125E-01  0.322193152736E-01  0.332670070289E-01  0.343487671064E-01  0.354657033230E-01
  0.366189595190E-01  0.378097167294E-01  0.390391943938E-01  0.403086516046E-01  0.416193883970E-01
  0.429727470800E-01  0.443701136111E-01  0.458129190158E-01  0.473026408530E-01  0.488408047279E-01
  0.504289858547E-01  0.520688106698E-01  0.537619584970E-01  0.555101632676E-01  0.573152152961E-01
  0.591789631136E-01  0.611033153606E-01  0.630902427420E-01  0.651417800450E-01  0.672600282232E-01
  0.694471565478E-01  0.717054048293E-01  0.740370857112E-01  0.764445870386E-01  0.789303743032E-01
  0.814969931683E-01  0.841470720760E-01  0.868833249387E-01  0.897085539183E-01  0.926256522963E-01
  0.956376074362E-01  0.987475038434E-01  0.101958526323E+00  0.105273963244E+00  0.108697209902E+00
  0.112231772002E+00  0.115881269243E+00  0.119649439031E+00  0.123540140299E+00  0.127557357467E+00
  0.131705204515E+00  0.135987929202E+00  0.140409917411E+00  0.144975697645E+00  0.149689945662E+00
  0.154557489265E+00  0.159583313242E+00  0.164772564477E+00  0.170130557216E+00  0.175662778513E+00
  0.181374893845E+00  0.187272752918E+00  0.193362395655E+00  0.199650058381E+00  0.206142180214E+00
  0.212845409652E+00  0.219766611390E+00  0.226912873342E+00  0.234291513904E+00  0.241910089451E+00
  0.249776402068E+00  0.257898507547E+00  0.266284723634E+00  0.274943638548E+00  0.283884119773E+00
  0.293115323144E+00  0.302646702219E+00  0.312488017964E+00  0.322649348746E+00  0.333141100655E+00
  0.343974018163E+00  0.355159195124E+00  0.366708086135E+00  0.378632518272E+00  0.390944703193E+00
  0.403657249653E+00  0.416783176411E+00  0.430335925561E+00  0.444329376303E+00  0.458777859154E+00
  0.473696170623E+00  0.489099588364E+00  0.505003886824E+00  0.521425353393E+00  0.538380805088E+00
  0.555887605773E+00  0.573963683943E+00  0.592627551081E+00  0.611898320617E+00  0.631795727504E+00
  0.652340148425E+00  0.673552622662E+00  0.695454873642E+00  0.718069331186E+00  0.741419154472E+00
  0.765528255761E+00  0.790421324879E+00  0.816123854504E+00  0.842662166272E+00  0.870063437734E+00
  0.898355730187E+00  0.927568017409E+00  0.957730215336E+00  0.988873212694E+00  0.102102890263E+01
  0.105423021539E+01  0.108851115201E+01  0.112390681917E+01  0.116045346513E+01  0.119818851684E+01
  0.123715061829E+01  0.127737967008E+01  0.131891687028E+01  0.136180475661E+01  0.140608725001E+01
  0.145180969962E+01  0.149901892923E+01  0.154776328521E+01  0.159809268605E+01  0.165005867345E+01
  0.170371446511E+01  0.175911500927E+01  0.181631704092E+01  0.187537913993E+01  0.193636179106E+01
  0.199932744588E+01  0.206434058670E+01  0.213146779268E+01  0.220077780794E+01  0.227234161198E+01
  0.234623249241E+01  0.242252611993E+01  0.250130062588E+01  0.258263668225E+01  0.266661758427E+01
  0.275332933571E+01  0.284286073700E+01  0.293530347609E+01  0.303075222245E+01  0.312930472392E+01
  0.323106190688E+01  0.333612797958E+01  0.344461053885E+01  0.355662068033E+01  0.367227311217E+01
 aepotential
  0.150539791264E+05  0.151592687834E+05  0.152385465635E+05  0.152911637995E+05  0.153166250210E+05
  0.153147281167E+05  0.152853951760E+05  0.152287722849E+05  0.151452393682E+05  0.150353523556E+05
  0.148998653553E+05  0.147396978228E+05  0.145560029646E+05  0.143500056114E+05  0.141231316879E+05
  0.138768967572E+05  0.136129202093E+05  0.133328960650E+05  0.130385708107E+05  0.127317296443E+05
  0.124141628143E+05  0.120876536407E+05  0.117539584687E+05  0.114147863133E+05  0.110717859157E+05
  0.107265333973E+05  0.103805157133E+05  0.100351266502E+05  0.969165775854E+04  0.935129184510E+04
  0.901510158936E+04  0.868404829502E+04  0.835898116789E+04  0.804063984975E+04  0.772965810386E+04
  0.742656730752E+04  0.713180210240E+04  0.684570634877E+04  0.656853929303E+04  0.630048244305E+04
  0.604164654008E+04  0.579207843759E+04  0.555176801900E+04  0.532065489745E+04  0.509863485468E+04
  0.488556594317E+04  0.468127424164E+04  0.448555913310E+04  0.429819826519E+04  0.411895195082E+04
  0.394756719715E+04  0.378378137141E+04  0.362732525190E+04  0.347792593585E+04  0.333530918357E+04
  0.319920153065E+04  0.306933214136E+04  0.294543405000E+04  0.282724559639E+04  0.271451144754E+04
  0.260698312123E+04  0.250441985246E+04  0.240658895301E+04  0.231326606575E+04  0.222423533770E+04
  0.213928972124E+04  0.205823070925E+04  0.198086843668E+04  0.190702152655E+04  0.183651688837E+04
  0.176918951293E+04  0.170488242214E+04  0.164344598557E+04  0.158473817610E+04  0.152862390911E+04
  0.147497489997E+04  0.142366953879E+04  0.137459185052E+04  0.132763260116E+04  0.128268753186E+04
  0.123965805959E+04  0.119845065598E+04  0.115897658697E+04  0.112115178662E+04  0.108489634713E+04
  0.105013478237E+04  0.101679532365E+04  0.984809798525E+03  0.954113871362E+03  0.924646080898E+03
  0.896348474707E+03  0.869165809622E+03  0.843045753260E+03  0.817938534033E+03  0.793796959947E+03
  0.770576106152E+03  0.748233373408E+03  0.726728168985E+03  0.706021947440E+03  0.686078019117E+03
  0.666861500682E+03  0.648339140103E+03  0.630479313008E+03  0.613251874886E+03  0.596628101322E+03
  0.580580621265E+03  0.565083310347E+03  0.550111266588E+03  0.535640710069E+03  0.521648940052E+03
  0.508114267486E+03  0.495015971764E+03  0.482334238975E+03  0.470050106986E+03  0.458145476601E+03
  0.446602928616E+03  0.435405901068E+03  0.424538404043E+03  0.413985181226E+03  0.403731598829E+03
  0.393763563745E+03  0.384067582489E+03  0.374630700313E+03  0.365440424735E+03  0.356484786293E+03
  0.347752239712E+03  0.339231677751E+03  0.330912411008E+03  0.322784124855E+03  0.314836880150E+03
  0.307061086704E+03  0.299447488177E+03  0.291987139921E+03  0.284671404509E+03  0.277491923992E+03
  0.270440618542E+03  0.263509665983E+03  0.256691489308E+03  0.249978750378E+03  0.243364334009E+03
  0.236841341527E+03  0.230403078532E+03  0.224043048989E+03  0.217754943095E+03  0.211532634951E+03
  0.205370169841E+03  0.199261762835E+03  0.193201787433E+03  0.187184776779E+03  0.181205411930E+03
  0.175258522505E+03  0.169339079277E+03  0.163442193830E+03  0.157563112442E+03  0.151697215513E+03
  0.145840016632E+03  0.139987157171E+03  0.134134408833E+03  0.128277670713E+03  0.122412973719E+03
  0.116536471609E+03  0.110644453583E+03  0.104733336450E+03  0.987996696421E+02  0.928401404740E+02
  0.868515719726E+02  0.808309294972E+02  0.747753259382E+02  0.686820224611E+02  0.625484378683E+02
  0.563721524498E+02  0.501509157424E+02  0.438826533393E+02  0.375654763601E+02  0.311976902795E+02
  0.247778042436E+02  0.183045448234E+02  0.117768662662E+02  0.519396572035E+01 -0.144470234392E+01
 -0.813940858800E+01 -0.148901309877E+02 -0.216965343629E+02 -0.285579476937E+02 -0.354733404512E+02
 -0.424412951516E+02 -0.494599787277E+02 -0.565271107883E+02 -0.636399294310E+02 -0.707951552970E+02
 -0.779889529056E+02 -0.852168911815E+02 -0.924739028657E+02 -0.997542451789E+02 -0.107051462698E+03
 -0.114358355297E+03 -0.121666954926E+03 -0.128968514369E+03 -0.136253514543E+03 -0.143511695707E+03
 -0.150732120048E+03 -0.157903273285E+03 -0.165013212658E+03 -0.172049766587E+03 -0.179000788507E+03
 -0.185854459936E+03 -0.192599627300E+03 -0.199226141096E+03 -0.205725144102E+03 -0.212089226878E+03
 -0.218312339277E+03 -0.224389318747E+03 -0.230314887977E+03 -0.236082003744E+03 -0.241679536837E+03
 -0.247089451766E+03 -0.252283950757E+03 -0.257223321745E+03 -0.261855594530E+03 -0.266118918141E+03
 -0.269947251627E+03 -0.273278995442E+03 -0.276067163321E+03 -0.278288937951E+03 -0.279952373475E+03
 -0.281098588537E+03 -0.281798723908E+03 -0.282145938781E+03 -0.282243820131E+03 -0.282193733445E+03
 -0.282084273987E+03 -0.281985307431E+03 -0.281947177097E+03 -0.282003657806E+03 -0.282176379780E+03
 -0.282478863411E+03 -0.282919337568E+03 -0.283502383486E+03 -0.284229813455E+03 -0.285101207431E+03
 -0.286114344614E+03 -0.287265620856E+03 -0.288550431555E+03 -0.289963490576E+03 -0.291499046680E+03
 -0.293150990195E+03 -0.294912851636E+03 -0.296777703158E+03 -0.298737978780E+03 -0.300785224117E+03
 -0.302909788944E+03 -0.305100480209E+03 -0.307344197155E+03 -0.309625590741E+03 -0.311926814270E+03
 -0.314227465037E+03 -0.316504856810E+03 -0.318734792229E+03 -0.320892997896E+03 -0.322957312243E+03
 -0.324910493509E+03 -0.326743080488E+03 -0.328454965501E+03 -0.330053285568E+03 -0.331543153623E+03
 -0.332908616723E+03 -0.334086119732E+03 -0.334943329844E+03 -0.335288059184E+03 -0.334927147676E+03
 -0.333767143189E+03 -0.331900202426E+03 -0.329588210754E+03 -0.327121543630E+03 -0.324671179294E+03
 -0.322262479640E+03 -0.319844619154E+03 -0.317358828784E+03 -0.314766832224E+03 -0.312052138781E+03
 -0.309212174632E+03 -0.306250222907E+03 -0.303170052168E+03 -0.299973499421E+03 -0.296660208735E+03
 -0.293228471377E+03 -0.289676354327E+03 -0.286002643465E+03 -0.282207457288E+03 -0.278292537590E+03
 -0.274261309507E+03 -0.270118773809E+03 -0.265871320548E+03 -0.261526489618E+03 -0.257092721323E+03
 -0.252579105980E+03 -0.247995147388E+03 -0.243350556215E+03 -0.238655048127E+03 -0.233918204703E+03
 -0.229149348824E+03 -0.224357465987E+03 -0.219551162911E+03 -0.214738662173E+03 -0.209927818068E+03
 -0.205126157089E+03 -0.200340910057E+03 -0.195579036502E+03 -0.190847220417E+03 -0.186151834404E+03
 -0.181498873246E+03 -0.176893870773E+03 -0.172341821661E+03 -0.167847136413E+03 -0.163413653899E+03
 -0.159044725271E+03 -0.154743359391E+03 -0.150512396582E+03 -0.146354660628E+03 -0.142273039731E+03
 -0.138270469753E+03 -0.134349831360E+03 -0.130513793005E+03 -0.126764652782E+03 -0.123104224649E+03
 -0.119533774742E+03 -0.116054022071E+03 -0.112665176337E+03 -0.109366994129E+03 -0.106158838575E+03
 -0.103039724498E+03 -0.100008347380E+03 -0.970630954089E+02 -0.942020530164E+02 -0.914230041748E+02
 -0.887234504674E+02 -0.861006526623E+02 -0.835517024940E+02 -0.810736222924E+02 -0.786634831065E+02
 -0.763185270187E+02 -0.740362723022E+02 -0.718146051772E+02 -0.696518147681E+02 -0.675466128669E+02
 -0.654981046420E+02 -0.635057331315E+02 -0.615691982069E+02 -0.596883570837E+02 -0.578631135176E+02
 -0.560933042300E+02 -0.543785929116E+02 -0.527183833512E+02 -0.511117625631E+02 -0.495574813938E+02
 core charge-density
  0.610597738213E-03  0.650164356450E-03  0.692291791433E-03  0.737145471609E-03  0.784901481400E-03
  0.835747244559E-03  0.889882251128E-03  0.947518830626E-03  0.100888297444E-02  0.107421521052E-02
  0.114377153362E-02  0.121782439458E-02  0.129666375243E-02  0.138059819310E-02  0.146995611902E-02
  0.156508701401E-02  0.166636278810E-02  0.177417920736E-02  0.188895741385E-02  0.201114554153E-02
  0.214122043382E-02  0.227968946930E-02  0.242709250208E-02  0.258400392406E-02  0.275103485635E-02
  0.292883547814E-02  0.311809750099E-02  0.331955679791E-02  0.353399619627E-02  0.376224844481E-02
  0.400519936513E-02  0.426379119904E-02  0.453902616339E-02  0.483197022510E-02  0.514375710948E-02
  0.547559255599E-02  0.582875883607E-02  0.620461954880E-02  0.660462471090E-02  0.703031615838E-02
  0.748333327846E-02  0.796541909098E-02  0.847842669997E-02  0.902432613688E-02  0.960521161825E-02
  0.102233092420E-01  0.108809851474E-01  0.115807541653E-01  0.123252889873E-01  0.131174298822E-01
  0.139601949915E-01  0.148567912369E-01  0.158106258722E-01  0.168253187182E-01  0.179047151153E-01
  0.190528996359E-01  0.202742105958E-01  0.215732554089E-01  0.229549268311E-01  0.244244201386E-01
  0.259872512924E-01  0.276492761385E-01  0.294167106986E-01  0.312961526071E-01  0.332946037521E-01
  0.354194941806E-01  0.376787073318E-01  0.400806066617E-01  0.426340637271E-01  0.453484877982E-01
  0.482338570713E-01  0.513007515551E-01  0.545603877059E-01  0.580246548898E-01  0.617061537510E-01
  0.656182365660E-01  0.697750496676E-01  0.741915780199E-01  0.788836920313E-01  0.838681966855E-01
  0.891628830808E-01  0.947865824571E-01  0.100759222797E+00  0.107101888083E+00  0.113836880286E+00
  0.120987784171E+00  0.128579534984E+00  0.136638489098E+00  0.145192497667E+00  0.154270983366E+00
  0.163905020240E+00  0.174127416721E+00  0.184972801827E+00  0.196477714567E+00  0.208680696541E+00
  0.221622387729E+00  0.235345625422E+00  0.249895546245E+00  0.265319691177E+00  0.281668113478E+00
  0.298993489355E+00  0.317351231211E+00  0.336799603258E+00  0.357399839231E+00  0.379216261912E+00
  0.402316404092E+00  0.426771130581E+00  0.452654760778E+00  0.480045191263E+00  0.509024017805E+00
  0.539676656074E+00  0.572092460300E+00  0.606364838978E+00  0.642591366658E+00  0.680873890730E+00
  0.721318631984E+00  0.764036277652E+00  0.809142065416E+00  0.856755856821E+00  0.907002198312E+00
  0.960010367965E+00  0.101591440585E+01  0.107485312576E+01  0.113697010580E+01  0.120241365530E+01
  0.127133675505E+01  0.134389696806E+01  0.142025631727E+01  0.150058112698E+01  0.158504182427E+01
  0.167381269646E+01  0.176707160047E+01  0.186499961991E+01  0.196778066526E+01  0.207560101253E+01
  0.218864877543E+01  0.230711330626E+01  0.243118452020E+01  0.256105213788E+01  0.269690484108E+01
  0.283892933621E+01  0.298730932052E+01  0.314222434594E+01  0.330384857578E+01  0.347234942977E+01
  0.364788611334E+01  0.383060802743E+01  0.402065305598E+01  0.421814572878E+01  0.442319525844E+01
  0.463589345116E+01  0.485631249252E+01  0.508450261061E+01  0.532048962075E+01  0.556427235783E+01
  0.581582000449E+01  0.607506932553E+01  0.634192182184E+01  0.661624081964E+01  0.689784851447E+01
  0.718652299201E+01  0.748199525221E+01  0.778394626652E+01  0.809200410227E+01  0.840574115263E+01
  0.872467151471E+01  0.904824856310E+01  0.937586277067E+01  0.970683983276E+01  0.100404391557E+02
  0.103758527745E+02  0.107122047681E+02  0.110485512452E+02  0.113838809755E+02  0.117171167425E+02
  0.120471174984E+02  0.123726813975E+02  0.126925497863E+02  0.130054122252E+02  0.133099126113E+02
  0.136046564661E+02  0.138882194441E+02  0.141591571053E+02  0.144160159850E+02  0.146573459730E+02
  0.148817140012E+02  0.150877190116E+02  0.152740081558E+02  0.154392941479E+02  0.155823736617E+02
  0.157021466312E+02  0.157976362787E+02  0.158680096545E+02  0.159125984389E+02  0.159309197124E+02
  0.159226963661E+02  0.158878767828E+02  0.158266533860E+02  0.157394796209E+02  0.156270849038E+02
  0.154904870574E+02  0.153310017319E+02  0.151502483132E+02  0.149501518210E+02  0.147329403223E+02
  0.145011374172E+02  0.142575493993E+02  0.140052467605E+02  0.137475397829E+02  0.134879480592E+02
  0.132301638910E+02  0.129780096383E+02  0.127353892290E+02  0.125062341817E+02  0.122944446449E+02
  0.121038261104E+02  0.119380226081E+02  0.118004473679E+02  0.116942119868E+02  0.116220554206E+02
  0.115862741416E+02  0.115886549809E+02  0.116304122773E+02  0.117121310468E+02  0.118337179357E+02
  0.119943617225E+02  0.121925050711E+02  0.124258291100E+02  0.126912521961E+02  0.129849439267E+02
  0.133023551097E+02  0.136382640175E+02  0.139868388914E+02  0.143417163246E+02  0.146960948138E+02
  0.150428424043E+02  0.153746169529E+02  0.156839970945E+02  0.159636215807E+02  0.162063342571E+02
  0.164053316170E+02  0.165543095984E+02  0.166476061074E+02  0.166803356446E+02  0.166485124015E+02
  0.165491582699E+02  0.163803923896E+02  0.161414991406E+02  0.158329718674E+02  0.154565301156E+02
  0.150151087437E+02  0.145128179515E+02  0.139548740327E+02  0.133475014925E+02  0.126978080576E+02
  0.120136350380E+02  0.113033864289E+02  0.105758410534E+02  0.983995289456E+01  0.910464547455E+01
  0.837860667338E+01  0.767009060922E+01  0.698673307661E+01  0.633538640335E+01  0.572197870171E+01
  0.515140040486E+01  0.462741995534E+01  0.415262962270E+01  0.372842125531E+01  0.335499613768E+01
  0.303141333369E+01  0.275568099924E+01  0.252488937579E+01  0.233537429524E+01  0.218289266788E+01
  0.206279457736E+01  0.197018694886E+01  0.190008990214E+01  0.184758575301E+01  0.180795746735E+01
  0.177681192464E+01  0.175018362889E+01  0.172461558623E+01  0.169721539285E+01  0.166568594589E+01
  0.162833149810E+01  0.158404092941E+01  0.153225106039E+01  0.147289351590E+01  0.140632907771E+01
  0.133327362804E+01  0.125471972905E+01  0.117185760157E+01  0.108599885689E+01  0.998505779577E+00
  0.910728363187E+00  0.823950640723E+00  0.739347298567E+00  0.657950978899E+00  0.580629842832E+00
  0.508075186227E+00  0.440797959562E+00  0.379133058313E+00  0.323250037499E+00  0.273168821668E+00
  0.228778975838E+00  0.189861159270E+00  0.156109497502E+00  0.127153761839E+00  0.102580430588E+00
  0.819519085880E-01  0.648233890160E-01  0.507570419956E-01  0.393333980944E-01  0.301599533996E-01
  0.228771513714E-01  0.171619929995E-01  0.127295915300E-01  0.933302378692E-02  0.676184088070E-02
  0.483959116354E-02  0.342068210784E-02  0.238686953529E-02  0.164361652238E-02  0.111651442534E-02
  0.747908715184E-03  0.493825913304E-03  0.321257311286E-03  0.205821670278E-03  0.129803207586E-03
  0.805425883204E-04  0.491465988944E-04  0.294756490379E-04  0.173660924458E-04  0.100454435407E-04
  0.570186135994E-05  0.317387547909E-05  0.173151771501E-05  0.925249467125E-06  0.483959811486E-06
  0.247624886078E-06  0.123857271007E-06  0.605187036047E-07  0.288660509672E-07  0.134305147733E-07
  0.609075950514E-08  0.269015201965E-08  0.115623997102E-08  0.483180530746E-09  0.196141862940E-09
  0.772723048435E-10  0.295153075191E-10  0.109194726344E-10  0.390869650343E-11  0.135228261503E-11
 kinetic energy-density
  0.424295313665E+03  0.426940823988E+03  0.429693425596E+03  0.432555948482E+03  0.435532361977E+03
  0.438626530722E+03  0.441842472253E+03  0.445184608230E+03  0.448657382940E+03  0.452265532519E+03
  0.456013970826E+03  0.459907973346E+03  0.463952995823E+03  0.468154751927E+03  0.472519342192E+03
  0.477053078196E+03  0.481762670775E+03  0.486655119097E+03  0.491737820140E+03  0.497018560210E+03
  0.502505481044E+03  0.508207190071E+03  0.514132707756E+03  0.520291507410E+03  0.526693576024E+03
  0.533349372731E+03  0.540269898074E+03  0.547466713890E+03  0.554951952954E+03  0.562738353932E+03
  0.570839307814E+03  0.579268864839E+03  0.588041776083E+03  0.597173541158E+03  0.606680427941E+03
  0.616579523021E+03  0.626888771556E+03  0.637627026730E+03  0.648814080286E+03  0.660470739823E+03
  0.672618861825E+03  0.685281417666E+03  0.698482551705E+03  0.712247646428E+03  0.726603390534E+03
  0.741577849172E+03  0.757200544889E+03  0.773502530730E+03  0.790516484695E+03  0.808276792650E+03
  0.826819644917E+03  0.846183144552E+03  0.866407402077E+03  0.887534660967E+03  0.909609406788E+03
  0.932678491875E+03  0.956791285075E+03  0.981999788643E+03  0.100835880107E+04  0.103592606847E+04
  0.106476245324E+04  0.109493209769E+04  0.112650262077E+04  0.115954530440E+04  0.119413529380E+04
  0.123035181453E+04  0.126827840591E+04  0.130800314612E+04  0.134961891162E+04  0.139322364530E+04
  0.143892060980E+04  0.148681872364E+04  0.153703281741E+04  0.158968400247E+04  0.164489996336E+04
  0.170281535312E+04  0.176357219360E+04  0.182732014776E+04  0.189421708878E+04  0.196442939811E+04
  0.203813251712E+04  0.211551134159E+04  0.219676079525E+04  0.228208626501E+04  0.237170422944E+04
  0.246584271218E+04  0.256474202864E+04  0.266865523321E+04  0.277784888430E+04  0.289260365042E+04
  0.301321502162E+04  0.313999402729E+04  0.327326800149E+04  0.341338132456E+04  0.356069624579E+04
  0.371559371306E+04  0.387847423063E+04  0.404975873012E+04  0.422988948891E+04  0.441933104593E+04
  0.461857117667E+04  0.482812186806E+04  0.504852028522E+04  0.528032983199E+04  0.552414113760E+04
  0.578057312479E+04  0.605027404919E+04  0.633392253932E+04  0.663222868089E+04  0.694593503035E+04
  0.727581767528E+04  0.762268722774E+04  0.798738984937E+04  0.837080813982E+04  0.877386217528E+04
  0.919751018051E+04  0.964274952149E+04  0.101106172942E+05  0.106021909030E+05  0.111185887774E+05
  0.116609705501E+05  0.122305373737E+05  0.128285320862E+05  0.134562390055E+05  0.141149836700E+05
  0.148061323486E+05  0.155310911530E+05  0.162913050833E+05  0.170882565291E+05  0.179234636280E+05
  0.187984780687E+05  0.197148826273E+05  0.206742881267E+05  0.216783299944E+05  0.227286642220E+05
  0.238269627698E+05  0.249749083969E+05  0.261741887150E+05  0.274264896545E+05  0.287334880673E+05
  0.300968436147E+05  0.315181897024E+05  0.329991236401E+05  0.345411957220E+05  0.361458974578E+05
  0.378146486636E+05  0.395487835966E+05  0.413495359024E+05  0.432180225295E+05  0.451552264867E+05
  0.471619784194E+05  0.492389371243E+05  0.513865688598E+05  0.536051256204E+05  0.558946222928E+05
  0.582548128179E+05  0.606851655748E+05  0.631848375298E+05  0.657526482325E+05  0.683870527134E+05
  0.710861144079E+05  0.738474774745E+05  0.766683395792E+05  0.795454245040E+05  0.824749557610E+05
  0.854526308135E+05  0.884735966740E+05  0.915324272534E+05  0.946231027122E+05  0.977389913486E+05
  0.100872834781E+06  0.104016736435E+06  0.107162154486E+06  0.110299899334E+06  0.113420136581E+06
  0.116512395843E+06  0.119565586195E+06  0.122568018778E+06  0.125507437154E+06  0.128371055892E+06
  0.131145608135E+06  0.133817402193E+06  0.136372388031E+06  0.138796233451E+06  0.141074410536E+06
  0.143192292116E+06  0.145135258349E+06  0.146888812985E+06  0.148438709026E+06  0.149771082971E+06
  0.150872596862E+06  0.151730587019E+06  0.152333218079E+06  0.152669640836E+06  0.152730151920E+06
  0.152506353367E+06  0.151991309701E+06  0.151179699946E+06  0.150067962024E+06  0.148654426393E+06
  0.146939436208E+06  0.144925450698E+06  0.142617128875E+06  0.140021390421E+06  0.137147451065E+06
  0.134006829675E+06  0.130613324952E+06  0.126982959801E+06  0.123133892188E+06  0.119086291814E+06
  0.114862182765E+06  0.110485253028E+06  0.105980632553E+06  0.101374642327E+06  0.966945174912E+05
  0.919681092902E+05  0.872235615833E+05  0.824889862333E+05  0.777921131353E+05  0.731599414400E+05
  0.686183879037E+05  0.641919413518E+05  0.599033320950E+05  0.557732265805E+05  0.518199577581E+05
  0.480593002939E+05  0.445042972031E+05  0.411651413652E+05  0.380491124698E+05  0.351605676267E+05
  0.325009824220E+05  0.300690386326E+05  0.278607549583E+05  0.258696574757E+05  0.240869867700E+05
  0.225019381652E+05  0.211019309710E+05  0.198729014482E+05  0.187996135907E+05  0.178659809637E+05
  0.170553925807E+05  0.163510357058E+05  0.157362085440E+05  0.151946165443E+05  0.147106462114E+05
  0.142696116859E+05  0.138579698446E+05  0.134635007219E+05  0.130754512256E+05  0.126846407048E+05
  0.122835280975E+05  0.118662409689E+05  0.114285675519E+05  0.109679134169E+05  0.104832249027E+05
  0.997488189693E+04  0.944456273164E+04  0.889508461268E+04  0.833022310397E+04  0.775451520940E+04
  0.717305118586E+04  0.659126173454E+04  0.601470868317E+04  0.544888838755E+04  0.489905827180E+04
  0.437009688678E+04  0.386639607933E+04  0.339178159140E+04  0.294944221935E+04  0.254184219041E+04
  0.217062354590E+04  0.183652927602E+04  0.153940179973E+04  0.127828722368E+04  0.105160938600E+04
  0.857337528744E+03  0.693107151807E+03  0.556307270174E+03  0.444159166493E+03  0.353796835363E+03
  0.282347273222E+03  0.227005508875E+03  0.185100191930E+03  0.154147249878E+03  0.131890471649E+03
  0.116328841465E+03  0.105731124787E+03  0.986387495398E+02  0.938584696830E+02  0.904465981203E+02
  0.876868103203E+02  0.850635094996E+02  0.822327253101E+02  0.789922531379E+02  0.752525202156E+02
  0.710093421181E+02  0.663194529546E+02  0.612789615279E+02  0.560060035217E+02  0.506261991076E+02
  0.452618730660E+02  0.400242659687E+02  0.350084582789E+02  0.302905837436E+02  0.259268957715E+02
  0.219542699828E+02  0.183917477270E+02  0.152427734887E+02  0.124978248807E+02  0.101371869286E+02
  0.813367454669E+01  0.645515777671E+01  0.506679116205E+01  0.393289034129E+01  0.301843411312E+01
  0.229019831621E+01  0.171754845053E+01  0.127293147299E+01  0.932114501067E+00  0.674220422050E+00
  0.481609068802E+00  0.339648856665E+00  0.236418484693E+00  0.162372145862E+00  0.109995116448E+00
  0.734699771646E-01  0.483675336102E-01  0.313710219918E-01  0.200376902693E-01  0.125983908377E-01
  0.779337864788E-02  0.474095043153E-02  0.283472257327E-02  0.166505614855E-02  0.960239099869E-03
  0.543391407494E-03  0.301558674160E-03  0.164018146316E-03  0.873778280332E-04  0.455639406070E-04
  0.232416302961E-04  0.115889664442E-04  0.564489074046E-05  0.268404987056E-05  0.124489245103E-05
  0.562795480574E-06  0.247802772384E-06  0.106180414600E-06  0.442381153021E-07  0.179051600005E-07
  0.703376590909E-08  0.267921207820E-08  0.988551830624E-09  0.352948229457E-09  0.121806502434E-09
 mkinetic energy-density pseudized
  0.268713500849E-06  0.286473420598E-06  0.305407136032E-06  0.325592226120E-06  0.347111397213E-06
  0.370052821923E-06  0.394510500400E-06  0.420584645489E-06  0.448382093343E-06  0.478016741171E-06
  0.509610013921E-06  0.543291361809E-06  0.579198790722E-06  0.617479427689E-06  0.658290123715E-06
  0.701798096463E-06  0.748181615412E-06  0.797630732296E-06  0.850348059825E-06  0.906549601864E-06
  0.966465638492E-06  0.103034166955E-05  0.109843942054E-05  0.117103791504E-05  0.124843461796E-05
  0.133094665436E-05  0.141891210888E-05  0.151269141096E-05  0.161266881168E-05  0.171925395819E-05
  0.183288357221E-05  0.195402323942E-05  0.208316931718E-05  0.222085096828E-05  0.236763232913E-05
  0.252411482126E-05  0.269093961559E-05  0.286879025952E-05  0.305839547774E-05  0.326053215808E-05
  0.347602853469E-05  0.370576758172E-05  0.395069063114E-05  0.421180122976E-05  0.449016925120E-05
  0.478693527950E-05  0.510331528261E-05  0.544060559465E-05  0.580018822749E-05  0.618353653340E-05
  0.659222124195E-05  0.702791689589E-05  0.749240871237E-05  0.798759989773E-05  0.851551944560E-05
  0.907833045048E-05  0.967833897080E-05  0.103180034777E-04  0.109999449282E-04  0.117269575046E-04
  0.125020200629E-04  0.133283083384E-04  0.142092079581E-04  0.151483283126E-04  0.161495173453E-04
  0.172168773187E-04  0.183547816230E-04  0.195678926955E-04  0.208611811239E-04  0.222399460134E-04
  0.237098366982E-04  0.252768758892E-04  0.269474843514E-04  0.287285072116E-04  0.306272420054E-04
  0.326514685778E-04  0.348094809599E-04  0.371101213522E-04  0.395628163540E-04  0.421776155874E-04
  0.449652328739E-04  0.479370901320E-04  0.511053641769E-04  0.544830366119E-04  0.580839470190E-04
  0.619228496625E-04  0.660154739424E-04  0.703785888419E-04  0.750300716343E-04  0.799889811310E-04
  0.852756357706E-04  0.909116968680E-04  0.969202573664E-04  0.103325936454E-03  0.110154980435E-03
  0.117435370263E-03  0.125196936188E-03  0.133471479976E-03  0.142292905201E-03  0.151697356158E-03
  0.161723365951E-03  0.172412014361E-03  0.183807096161E-03  0.195955300544E-03  0.208906402407E-03
  0.222713466284E-03  0.237433063753E-03  0.253125505201E-03  0.269855086922E-03  0.287690354524E-03
  0.306704383761E-03  0.326975079906E-03  0.348585496919E-03  0.371624177700E-03  0.396185516823E-03
  0.422370147245E-03  0.450285352559E-03  0.480045506496E-03  0.511772541458E-03  0.545596448012E-03
  0.581655807390E-03  0.620098359162E-03  0.661081606424E-03  0.704773460965E-03  0.751352931053E-03
  0.801010854667E-03  0.853950681159E-03  0.910389304559E-03  0.970557951923E-03  0.103470313036E-02
  0.110308763661E-02  0.117599163332E-02  0.125371379638E-02  0.133657253806E-02  0.142490731088E-02
  0.151907999767E-02  0.161947639332E-02  0.172650778444E-02  0.184061263328E-02  0.196225837285E-02
  0.209194332055E-02  0.223019871807E-02  0.237759090606E-02  0.253472364213E-02  0.270224057206E-02
  0.288082786389E-02  0.307121701591E-02  0.327418784989E-02  0.349057170176E-02  0.372125482268E-02
  0.396718200453E-02  0.422936044437E-02  0.450886386369E-02  0.480683689925E-02  0.512449978320E-02
  0.546315333177E-02  0.582418426244E-02  0.620907086143E-02  0.661938902446E-02  0.705681869508E-02
  0.752315072691E-02  0.802029419735E-02  0.855028420243E-02  0.911529016426E-02  0.971762468466E-02
  0.103597529805E-01  0.110443029391E-01  0.117740758336E-01  0.125520577421E-01  0.133814317153E-01
  0.142655907428E-01  0.152081515689E-01  0.162129694131E-01  0.172841536545E-01  0.184260845427E-01
  0.196434310003E-01  0.209411695895E-01  0.223246047162E-01  0.237993901518E-01  0.253715519580E-01
  0.270475129040E-01  0.288341184713E-01  0.307386645488E-01  0.327689269245E-01  0.349331926891E-01
  0.372402936718E-01  0.396996420376E-01  0.423212681822E-01  0.451158610679E-01  0.480948111548E-01
  0.512702560874E-01  0.546551293093E-01  0.582632117855E-01  0.621091870252E-01  0.662086996045E-01
  0.705784174046E-01  0.752360977886E-01  0.802006579535E-01  0.854922497076E-01  0.911323389334E-01
  0.971437900126E-01  0.103550955501E+00  0.110379771355E+00  0.117657858025E+00  0.125414627754E+00
  0.133681398407E+00  0.142491514210E+00  0.151880473760E+00  0.161886065689E+00  0.172548512385E+00
  0.183910622173E+00  0.196017950388E+00  0.208918969746E+00  0.222665250477E+00  0.237311650631E+00
  0.252916517026E+00  0.269541897256E+00  0.287253763212E+00  0.306122246518E+00  0.326221886319E+00
  0.347631889772E+00  0.370436405613E+00  0.394724811099E+00  0.420592012594E+00  0.448138759973E+00
  0.477471974967E+00  0.508705093471E+00  0.541958421686E+00  0.577359505879E+00  0.615043515330E+00
  0.655153637875E+00  0.697841487195E+00  0.743267520759E+00  0.791601466996E+00  0.843022759917E+00
  0.897720978992E+00  0.955896291600E+00  0.101775989482E+01  0.108353445268E+01  0.115345452432E+01
  0.122776697757E+01  0.130673138166E+01  0.139062037167E+01  0.147971997596E+01  0.157432989681E+01
  0.167476373258E+01  0.178134912839E+01  0.189442784003E+01  0.201435569391E+01  0.214150242363E+01
  0.227625136054E+01  0.241899895363E+01  0.257015409009E+01  0.273013718492E+01  0.289937900399E+01
  0.307831918079E+01  0.326740438286E+01  0.346708607898E+01  0.367781785333E+01  0.390005220750E+01
  0.413423678579E+01  0.438080995387E+01  0.464019565493E+01  0.491279746250E+01  0.519899174368E+01
  0.549911984219E+01  0.581347918685E+01  0.614231322883E+01  0.648580010998E+01  0.684403996648E+01
  0.721704077593E+01  0.760470266465E+01  0.800680060441E+01  0.842296544661E+01  0.885266326763E+01
  0.929517303325E+01  0.974956263492E+01  0.102146634070E+02  0.106890433059E+02  0.111709790181E+02
  0.116584273735E+02  0.121489965637E+02  0.126399178220E+02  0.131280183933E+02  0.136096968308E+02
  0.140809018876E+02  0.145371165307E+02  0.149733488929E+02  0.153841322848E+02  0.157635367106E+02
  0.161051946550E+02  0.164023442157E+02  0.166478929278E+02  0.168345058230E+02  0.169547213540E+02
  0.170010987352E+02  0.169663999394E+02  0.168438089674E+02  0.166271899764E+02  0.163113843071E+02
  0.158925442656E+02  0.153684985663E+02  0.147391405040E+02  0.140068250830E+02  0.131767554072E+02
  0.122573316272E+02  0.112604277103E+02  0.102015524975E+02  0.909984235226E+01  0.797782390846E+01
  0.686087803977E+01  0.577633168960E+01  0.475210461318E+01  0.381484593230E+01  0.298751378037E+01
  0.228638377620E+01  0.171752240977E+01  0.127293147299E+01  0.932114501067E+00  0.674220422050E+00
  0.481609068802E+00  0.339648856665E+00  0.236418484693E+00  0.162372145862E+00  0.109995116448E+00
  0.734699771646E-01  0.483675336102E-01  0.313710219918E-01  0.200376902693E-01  0.125983908377E-01
  0.779337864788E-02  0.474095043153E-02  0.283472257327E-02  0.166505614855E-02  0.960239099869E-03
  0.543391407494E-03  0.301558674160E-03  0.164018146316E-03  0.873778280332E-04  0.455639406070E-04
  0.232416302961E-04  0.115889664442E-04  0.564489074046E-05  0.268404987056E-05  0.124489245103E-05
  0.562795480574E-06  0.247802772384E-06  0.106180414600E-06  0.442381153021E-07  0.179051600005E-07
  0.703376590909E-08  0.267921207820E-08  0.988551830624E-09  0.352948229457E-09  0.121806502434E-09
 local pseudopotential core
 -0.455057790450E+03 -0.455059244515E+03 -0.455060652781E+03 -0.455062016688E+03 -0.455063337631E+03
 -0.455064616966E+03 -0.455065856000E+03 -0.455067056002E+03 -0.455068218202E+03 -0.455069343790E+03
 -0.455070433917E+03 -0.455071489698E+03 -0.455072512216E+03 -0.455073502517E+03 -0.455074461614E+03
 -0.455075390489E+03 -0.455076290093E+03 -0.455077161347E+03 -0.455078005141E+03 -0.455078822340E+03
 -0.455079613779E+03 -0.455080380270E+03 -0.455081122594E+03 -0.455081841513E+03 -0.455082537761E+03
 -0.455083212050E+03 -0.455083865069E+03 -0.455084497487E+03 -0.455085109950E+03 -0.455085703083E+03
 -0.455086277493E+03 -0.455086833766E+03 -0.455087372472E+03 -0.455087894158E+03 -0.455088399359E+03
 -0.455088888590E+03 -0.455089362349E+03 -0.455089821120E+03 -0.455090265370E+03 -0.455090695552E+03
 -0.455091112103E+03 -0.455091515447E+03 -0.455091905996E+03 -0.455092284144E+03 -0.455092650278E+03
 -0.455093004766E+03 -0.455093347969E+03 -0.455093680235E+03 -0.455094001899E+03 -0.455094313286E+03
 -0.455094614710E+03 -0.455094906474E+03 -0.455095188872E+03 -0.455095462187E+03 -0.455095726692E+03
 -0.455095982651E+03 -0.455096230320E+03 -0.455096469944E+03 -0.455096701761E+03 -0.455096925998E+03
 -0.455097142877E+03 -0.455097352610E+03 -0.455097555400E+03 -0.455097751444E+03 -0.455097940931E+03
 -0.455098124042E+03 -0.455098300950E+03 -0.455098471823E+03 -0.455098636820E+03 -0.455098796093E+03
 -0.455098949787E+03 -0.455099098040E+03 -0.455099240986E+03 -0.455099378748E+03 -0.455099511445E+03
 -0.455099639188E+03 -0.455099762082E+03 -0.455099880226E+03 -0.455099993710E+03 -0.455100102619E+03
 -0.455100207032E+03 -0.455100307019E+03 -0.455100402644E+03 -0.455100493965E+03 -0.455100581032E+03
 -0.455100663888E+03 -0.455100742568E+03 -0.455100817101E+03 -0.455100887506E+03 -0.455100953796E+03
 -0.455101015975E+03 -0.455101074039E+03 -0.455101127975E+03 -0.455101177761E+03 -0.455101223365E+03
 -0.455101264747E+03 -0.455101301855E+03 -0.455101334628E+03 -0.455101362993E+03 -0.455101386865E+03
 -0.455101406149E+03 -0.455101420734E+03 -0.455101430499E+03 -0.455101435308E+03 -0.455101435009E+03
 -0.455101429435E+03 -0.455101418403E+03 -0.455101401714E+03 -0.455101379147E+03 -0.455101350465E+03
 -0.455101315410E+03 -0.455101273702E+03 -0.455101225036E+03 -0.455101169086E+03 -0.455101105498E+03
 -0.455101033892E+03 -0.455100953858E+03 -0.455100864955E+03 -0.455100766709E+03 -0.455100658613E+03
 -0.455100540122E+03 -0.455100410649E+03 -0.455100269570E+03 -0.455100116212E+03 -0.455099949858E+03
 -0.455099769739E+03 -0.455099575031E+03 -0.455099364856E+03 -0.455099138273E+03 -0.455098894277E+03
 -0.455098631794E+03 -0.455098349676E+03 -0.455098046698E+03 -0.455097721550E+03 -0.455097372836E+03
 -0.455096999063E+03 -0.455096598638E+03 -0.455096169861E+03 -0.455095710919E+03 -0.455095219874E+03
 -0.455094694661E+03 -0.455094133076E+03 -0.455093532768E+03 -0.455092891228E+03 -0.455092205779E+03
 -0.455091473569E+03 -0.455090691552E+03 -0.455089856481E+03 -0.455088964894E+03 -0.455088013096E+03
 -0.455086997151E+03 -0.455085912857E+03 -0.455084755736E+03 -0.455083521012E+03 -0.455082203593E+03
 -0.455080798047E+03 -0.455079298584E+03 -0.455077699032E+03 -0.455075992807E+03 -0.455074172890E+03
 -0.455072231798E+03 -0.455070161553E+03 -0.455067953647E+03 -0.455065599012E+03 -0.455063087977E+03
 -0.455060410234E+03 -0.455057554793E+03 -0.455054509934E+03 -0.455051263167E+03 -0.455047801173E+03
 -0.455044109753E+03 -0.455040173771E+03 -0.455035977089E+03 -0.455031502505E+03 -0.455026731679E+03
 -0.455021645058E+03 -0.455016221800E+03 -0.455010439686E+03 -0.455004275028E+03 -0.454997702576E+03
 -0.454990695411E+03 -0.454983224838E+03 -0.454975260267E+03 -0.454966769090E+03 -0.454957716547E+03
 -0.454948065584E+03 -0.454937776702E+03 -0.454926807797E+03 -0.454915113988E+03 -0.454902647433E+03
 -0.454889357139E+03 -0.454875188747E+03 -0.454860084318E+03 -0.454843982095E+03 -0.454826816250E+03
 -0.454808516623E+03 -0.454789008429E+03 -0.454768211964E+03 -0.454746042273E+03 -0.454722408816E+03
 -0.454697215094E+03 -0.454670358264E+03 -0.454641728721E+03 -0.454611209657E+03 -0.454578676595E+03
 -0.454543996881E+03 -0.454507029155E+03 -0.454467622787E+03 -0.454425617267E+03 -0.454380841568E+03
 -0.454333113461E+03 -0.454282238790E+03 -0.454228010698E+03 -0.454170208807E+03 -0.454108598343E+03
 -0.454042929210E+03 -0.453972935001E+03 -0.453898331954E+03 -0.453818817834E+03 -0.453734070754E+03
 -0.453643747921E+03 -0.453547484299E+03 -0.453444891201E+03 -0.453335554787E+03 -0.453219034477E+03
 -0.453094861264E+03 -0.452962535929E+03 -0.452821527153E+03 -0.452671269516E+03 -0.452511161380E+03
 -0.452340562653E+03 -0.452158792420E+03 -0.451965126452E+03 -0.451758794566E+03 -0.451538977849E+03
 -0.451304805731E+03 -0.451055352900E+03 -0.450789636065E+03 -0.450506610549E+03 -0.450205166716E+03
 -0.449884126228E+03 -0.449542238125E+03 -0.449178174732E+03 -0.448790527385E+03 -0.448377801980E+03
 -0.447938414353E+03 -0.447470685483E+03 -0.446972836530E+03 -0.446442983724E+03 -0.445879133098E+03
 -0.445279175103E+03 -0.444640879101E+03 -0.443961887781E+03 -0.443239711510E+03 -0.442471722658E+03
 -0.441655149951E+03 -0.440787072879E+03 -0.439864416233E+03 -0.438883944836E+03 -0.437842258538E+03
 -0.436735787578E+03 -0.435560788403E+03 -0.434313340075E+03 -0.432989341394E+03 -0.431584508894E+03
 -0.430094375884E+03 -0.428514292726E+03 -0.426839428575E+03 -0.425064774823E+03 -0.423185150515E+03
 -0.421195210032E+03 -0.419089453393E+03 -0.416862239506E+03 -0.414507802795E+03 -0.412020273615E+03
 -0.409393702927E+03 -0.406622091739E+03 -0.403699425845E+03 -0.400619716444E+03 -0.397377047245E+03
 -0.393965628715E+03 -0.390379860131E+03 -0.386614400171E+03 -0.382664246766E+03 -0.378524826994E+03
 -0.374192097811E+03 -0.369662658404E+03 -0.364933874996E+03 -0.360004018849E+03 -0.354872418165E+03
 -0.349539624329E+03 -0.344007592488E+03 -0.338279875424E+03 -0.332361827625E+03 -0.326260812182E+03
 -0.319986394703E+03 -0.313550491936E+03 -0.306967411836E+03 -0.300253666959E+03 -0.293427355373E+03
 -0.286506790324E+03 -0.279507990263E+03 -0.272440827601E+03 -0.265304489268E+03 -0.258084790983E+03
 -0.250758237075E+03 -0.243308002450E+03 -0.235751590257E+03 -0.228165155224E+03 -0.220654794994E+03
 -0.213183523946E+03 -0.205360213184E+03 -0.196893859938E+03 -0.189779701898E+03 -0.183059845060E+03
 -0.176707558086E+03 -0.170776954572E+03 -0.165308960720E+03 -0.160327898056E+03 -0.155829398163E+03
 -0.151314452338E+03 -0.146548929568E+03 -0.141933230441E+03 -0.137463020491E+03 -0.133133675902E+03
 -0.128940736537E+03 -0.124879884691E+03 -0.120946948935E+03 -0.117137890833E+03 -0.113448803716E+03
 -0.109875905252E+03 -0.106415533571E+03 -0.103064143167E+03 -0.998183009225E+02 -0.966746821772E+02
 -0.936300671748E+02 -0.906813378023E+02 -0.878254740834E+02 -0.850595513052E+02 -0.823807369369E+02
 -0.797862886870E+02 -0.772735453082E+02 -0.748399397970E+02 -0.724829757492E+02 -0.702002404174E+02
 -0.679893960560E+02 -0.658481785470E+02 -0.637743950951E+02 -0.617659219814E+02 -0.598207023788E+02
 -0.579367442423E+02 -0.561121182730E+02 -0.543449559324E+02 -0.526334475385E+02 -0.509758403810E+02
 pspotential valence only
 -0.358831226450E+03 -0.358832680526E+03 -0.358834088803E+03 -0.358835452722E+03 -0.358836773678E+03
 -0.358838053026E+03 -0.358839292076E+03 -0.358840492093E+03 -0.358841654311E+03 -0.358842779915E+03
 -0.358843870061E+03 -0.358844925862E+03 -0.358845948402E+03 -0.358846938726E+03 -0.358847897847E+03
 -0.358848826748E+03 -0.358849726380E+03 -0.358850597663E+03 -0.358851441489E+03 -0.358852258722E+03
 -0.358853050197E+03 -0.358853816726E+03 -0.358854559091E+03 -0.358855278053E+03 -0.358855974348E+03
 -0.358856648686E+03 -0.358857301758E+03 -0.358857934232E+03 -0.358858546755E+03 -0.358859139952E+03
 -0.358859714430E+03 -0.358860270776E+03 -0.358860809559E+03 -0.358861331328E+03 -0.358861836617E+03
 -0.358862325942E+03 -0.358862799801E+03 -0.358863258678E+03 -0.358863703042E+03 -0.358864133345E+03
 -0.358864550025E+03 -0.358864953507E+03 -0.358865344202E+03 -0.358865722508E+03 -0.358866088807E+03
 -0.358866443474E+03 -0.358866786867E+03 -0.358867119335E+03 -0.358867441214E+03 -0.358867752831E+03
 -0.358868054500E+03 -0.358868346525E+03 -0.358868629202E+03 -0.358868902813E+03 -0.358869167634E+03
 -0.358869423931E+03 -0.358869671960E+03 -0.358869911967E+03 -0.358870144192E+03 -0.358870368865E+03
 -0.358870586209E+03 -0.358870796437E+03 -0.358870999755E+03 -0.358871196362E+03 -0.358871386449E+03
 -0.358871570199E+03 -0.358871747790E+03 -0.358871919390E+03 -0.358872085161E+03 -0.358872245260E+03
 -0.358872399835E+03 -0.358872549028E+03 -0.358872692975E+03 -0.358872831805E+03 -0.358872965640E+03
 -0.358873094596E+03 -0.358873218784E+03 -0.358873338306E+03 -0.358873453260E+03 -0.358873563736E+03
 -0.358873669819E+03 -0.358873771587E+03 -0.358873869112E+03 -0.358873962457E+03 -0.358874051682E+03
 -0.358874136839E+03 -0.358874217972E+03 -0.358874295120E+03 -0.358874368313E+03 -0.358874437575E+03
 -0.358874502922E+03 -0.358874564364E+03 -0.358874621901E+03 -0.358874675526E+03 -0.358874725223E+03
 -0.358874770968E+03 -0.358874812728E+03 -0.358874850460E+03 -0.358874884112E+03 -0.358874913621E+03
 -0.358874938913E+03 -0.358874959905E+03 -0.358874976499E+03 -0.358874988589E+03 -0.358874996052E+03
 -0.358874998753E+03 -0.358874996543E+03 -0.358874989258E+03 -0.358874976718E+03 -0.358874958726E+03
 -0.358874935067E+03 -0.358874905507E+03 -0.358874869794E+03 -0.358874827651E+03 -0.358874778784E+03
 -0.358874722872E+03 -0.358874659568E+03 -0.358874588501E+03 -0.358874509271E+03 -0.358874421448E+03
 -0.358874324568E+03 -0.358874218136E+03 -0.358874101619E+03 -0.358873974448E+03 -0.358873836012E+03
 -0.358873685655E+03 -0.358873522677E+03 -0.358873346328E+03 -0.358873155807E+03 -0.358872950257E+03
 -0.358872728760E+03 -0.358872490338E+03 -0.358872233943E+03 -0.358871958458E+03 -0.358871662689E+03
 -0.358871345360E+03 -0.358871005109E+03 -0.358870640484E+03 -0.358870249933E+03 -0.358869831801E+03
 -0.358869384319E+03 -0.358868905602E+03 -0.358868393639E+03 -0.358867846283E+03 -0.358867261244E+03
 -0.358866636079E+03 -0.358865968183E+03 -0.358865254775E+03 -0.358864492892E+03 -0.358863679372E+03
 -0.358862810842E+03 -0.358861883708E+03 -0.358860894134E+03 -0.358859838030E+03 -0.358858711037E+03
 -0.358857508503E+03 -0.358856225470E+03 -0.358854856653E+03 -0.358853396412E+03 -0.358851838738E+03
 -0.358850177223E+03 -0.358848405032E+03 -0.358846514880E+03 -0.358844499001E+03 -0.358842349113E+03
 -0.358840056386E+03 -0.358837611408E+03 -0.358835004144E+03 -0.358832223893E+03 -0.358829259251E+03
 -0.358826098056E+03 -0.358822727345E+03 -0.358819133297E+03 -0.358815301179E+03 -0.358811215284E+03
 -0.358806858867E+03 -0.358802214078E+03 -0.358797261888E+03 -0.358791982011E+03 -0.358786352823E+03
 -0.358780351272E+03 -0.358773952784E+03 -0.358767131164E+03 -0.358759858488E+03 -0.358752104992E+03
 -0.358743838945E+03 -0.358735026526E+03 -0.358725631685E+03 -0.358715615992E+03 -0.358704938486E+03
 -0.358693555508E+03 -0.358681420519E+03 -0.358668483918E+03 -0.358654692835E+03 -0.358639990922E+03
 -0.358624318119E+03 -0.358607610417E+03 -0.358589799594E+03 -0.358570812944E+03 -0.358550572980E+03
 -0.358528997123E+03 -0.358505997373E+03 -0.358481479948E+03 -0.358455344913E+03 -0.358427485778E+03
 -0.358397789071E+03 -0.358366133883E+03 -0.358332391387E+03 -0.358296424325E+03 -0.358258086462E+03
 -0.358217222001E+03 -0.358173664974E+03 -0.358127238578E+03 -0.358077754483E+03 -0.358025012090E+03
 -0.357968797744E+03 -0.357908883899E+03 -0.357845028230E+03 -0.357776972695E+03 -0.357704442532E+03
 -0.357627145204E+03 -0.357544769273E+03 -0.357456983214E+03 -0.357363434149E+03 -0.357263746516E+03
 -0.357157520655E+03 -0.357044331314E+03 -0.356923726069E+03 -0.356795223652E+03 -0.356658312194E+03
 -0.356512447358E+03 -0.356357050385E+03 -0.356191506025E+03 -0.356015160363E+03 -0.355827318534E+03
 -0.355627242325E+03 -0.355414147654E+03 -0.355187201932E+03 -0.354945521305E+03 -0.354688167772E+03
 -0.354414146176E+03 -0.354122401079E+03 -0.353811813511E+03 -0.353481197605E+03 -0.353129297118E+03
 -0.352754781846E+03 -0.352356243945E+03 -0.351932194162E+03 -0.351481058005E+03 -0.351001171846E+03
 -0.350490779013E+03 -0.349948025861E+03 -0.349370957879E+03 -0.348757515867E+03 -0.348105532216E+03
 -0.347412727350E+03 -0.346676706396E+03 -0.345894956140E+03 -0.345064842357E+03 -0.344183607604E+03
 -0.343248369585E+03 -0.342256120197E+03 -0.341203725409E+03 -0.340087926111E+03 -0.338905340114E+03
 -0.337652465492E+03 -0.336325685481E+03 -0.334921275170E+03 -0.333435410253E+03 -0.331864178134E+03
 -0.330203591697E+03 -0.328449606094E+03 -0.326598138929E+03 -0.324645094238E+03 -0.322586390710E+03
 -0.320417994594E+03 -0.318135957794E+03 -0.315736461656E+03 -0.313215866956E+03 -0.310570770635E+03
 -0.307798069803E+03 -0.304895033528E+03 -0.301859382906E+03 -0.298689379852E+03 -0.295383924982E+03
 -0.291942664871E+03 -0.288366108816E+03 -0.284655755044E+03 -0.280814226044E+03 -0.276845412302E+03
 -0.272754623151E+03 -0.268548742528E+03 -0.264236385900E+03 -0.259828051920E+03 -0.255336257425E+03
 -0.250775635124E+03 -0.246162955973E+03 -0.241517006393E+03 -0.236858194795E+03 -0.232207673622E+03
 -0.227585649887E+03 -0.223008488150E+03 -0.218484398263E+03 -0.214008358355E+03 -0.209558818178E+03
 -0.205101086911E+03 -0.200602607315E+03 -0.196059912637E+03 -0.191522321097E+03 -0.187062760366E+03
 -0.182604552284E+03 -0.177710578030E+03 -0.172038331866E+03 -0.167527510077E+03 -0.163162889302E+03
 -0.158861649440E+03 -0.154626745086E+03 -0.150456963621E+03 -0.146347603807E+03 -0.142282002571E+03
 -0.138270022214E+03 -0.134349831360E+03 -0.130513793005E+03 -0.126764652782E+03 -0.123104224649E+03
 -0.119533774742E+03 -0.116054022071E+03 -0.112665176337E+03 -0.109366994129E+03 -0.106158838575E+03
 -0.103039724498E+03 -0.100008347380E+03 -0.970630954090E+02 -0.942020530165E+02 -0.914230041748E+02
 -0.887234504675E+02 -0.861006526623E+02 -0.835517024941E+02 -0.810736222925E+02 -0.786634831066E+02
 -0.763185270188E+02 -0.740362723022E+02 -0.718146051773E+02 -0.696518147681E+02 -0.675466128670E+02
 -0.654981046420E+02 -0.635057331316E+02 -0.615691982069E+02 -0.596883570837E+02 -0.578631135176E+02
 -0.560933042300E+02 -0.543785929116E+02 -0.527183833512E+02 -0.511117625631E+02 -0.495574813938E+02
 core charge-density (pseudized)
  0.267919134681E-08  0.285626552865E-08  0.304504296779E-08  0.324629716056E-08  0.346085272550E-08
  0.368958878220E-08  0.393344255334E-08  0.419341320490E-08  0.447056594013E-08  0.476603636412E-08
  0.508103513681E-08  0.541685293355E-08  0.577486573353E-08  0.615654045768E-08  0.656344097925E-08
  0.699723453163E-08  0.745969853962E-08  0.795272790229E-08  0.847834275713E-08  0.903869675734E-08
  0.963608589619E-08  0.102729579146E-07  0.109519223307E-07  0.116757611317E-07  0.124474401730E-07
  0.132701213307E-07  0.141471754564E-07  0.150821961898E-07  0.160790146825E-07  0.171417152961E-07
  0.182746523375E-07  0.194824678999E-07  0.207701108837E-07  0.221428572737E-07  0.236063317573E-07
  0.251665307705E-07  0.268298470683E-07  0.286030959179E-07  0.304935430238E-07  0.325089342979E-07
  0.346575275978E-07  0.369481265625E-07  0.393901166842E-07  0.419935037646E-07  0.447689549121E-07
  0.477278422497E-07  0.508822895104E-07  0.542452217136E-07  0.578304181231E-07  0.616525687066E-07
  0.657273343262E-07  0.700714109069E-07  0.747025978460E-07  0.796398709444E-07  0.849034601578E-07
  0.905149324863E-07  0.964972803428E-07  0.102875015762E-06  0.109674270833E-06  0.116922904779E-06
  0.124650618098E-06  0.132889074265E-06  0.141672029462E-06  0.151035470896E-06  0.161017764249E-06
  0.171659810875E-06  0.183005215392E-06  0.195100464341E-06  0.207995116661E-06  0.221742006751E-06
  0.236397460950E-06  0.252021528325E-06  0.268678226715E-06  0.286435805035E-06  0.305367022911E-06
  0.325549448809E-06  0.347065777852E-06  0.370004170652E-06  0.394458614538E-06  0.420529308644E-06
  0.448323074464E-06  0.477953793533E-06  0.509542874033E-06  0.543219748238E-06  0.579122402843E-06
  0.617397944331E-06  0.658203201711E-06  0.701705369094E-06  0.748082690729E-06  0.797525191318E-06
  0.850235454595E-06  0.906429453364E-06  0.966337434388E-06  0.103020486176E-05  0.109829342263E-05
  0.117088209938E-05  0.124826831268E-05  0.133076914004E-05  0.141872261498E-05  0.151248911196E-05
  0.161245282289E-05  0.171902333121E-05  0.183263729000E-05  0.195376021096E-05  0.208288837164E-05
  0.222055084871E-05  0.236731168556E-05  0.252377220322E-05  0.269057346390E-05  0.286839889736E-05
  0.305797710089E-05  0.326008482421E-05  0.347555015171E-05  0.370525589490E-05  0.395014320907E-05
  0.421121544891E-05  0.448954227887E-05  0.478626405517E-05  0.510259649732E-05  0.543983566827E-05
  0.579936328363E-05  0.618265237170E-05  0.659127330740E-05  0.702690024488E-05  0.749131797506E-05
  0.798642923627E-05  0.851426250776E-05  0.907698031811E-05  0.967688810249E-05  0.103164436449E-04
  0.109982671440E-04  0.117251519444E-04  0.125000759756E-04  0.133262139477E-04  0.142069503513E-04
  0.151458933169E-04  0.161468893888E-04  0.172140392750E-04  0.183517146366E-04  0.195645759858E-04
  0.208575917659E-04  0.222360586899E-04  0.237056234223E-04  0.252723056921E-04  0.269425229301E-04
  0.287231165331E-04  0.306213798604E-04  0.326450880779E-04  0.348025299699E-04  0.371025418501E-04
  0.395545437091E-04  0.421685777444E-04  0.449553494314E-04  0.479262713023E-04  0.510935096088E-04
  0.544700340612E-04  0.580696708433E-04  0.619071591202E-04  0.659982112663E-04  0.703595770595E-04
  0.750091121002E-04  0.799658507322E-04  0.852500837612E-04  0.908834412836E-04  0.968889809611E-04
  0.103291282096E-03  0.110116545887E-03  0.117392702267E-03  0.125149523756E-03  0.133418746782E-03
  0.142234200956E-03  0.151631946824E-03  0.161650422635E-03  0.172330600727E-03  0.183716154139E-03
  0.195853634108E-03  0.208792659180E-03  0.222586116650E-03  0.237290377145E-03  0.252965523200E-03
  0.269675592702E-03  0.287488838175E-03  0.306478002914E-03  0.326720615025E-03  0.348299300544E-03
  0.371302116799E-03  0.395822907343E-03  0.421961679772E-03  0.449825007906E-03  0.479526459828E-03
  0.511187053406E-03  0.544935741005E-03  0.580909925188E-03  0.619256007316E-03  0.660129971057E-03
  0.703698002934E-03  0.750137152139E-03  0.799636031989E-03  0.852395565489E-03  0.908629777632E-03
  0.968566637160E-03  0.103244895068E-02  0.110053531211E-02  0.117310111070E-02  0.125043960076E-02
  0.133286303674E-02  0.142070387697E-02  0.151431606008E-02  0.161407635760E-02  0.172038580700E-02
  0.183367122905E-02  0.195438683380E-02  0.208301591934E-02  0.222007266785E-02  0.236610404313E-02
  0.252169179417E-02  0.268745456912E-02  0.286405014393E-02  0.305217776993E-02  0.325258064448E-02
  0.346604850832E-02  0.369342037336E-02  0.393558738380E-02  0.419349581331E-02  0.446815020000E-02
  0.476061662055E-02  0.507202610336E-02  0.540357817989E-02  0.575654457169E-02  0.613227300907E-02
  0.653219117528E-02  0.695781076802E-02  0.741073166715E-02  0.789264619457E-02  0.840534344841E-02
  0.895071368976E-02  0.953075275523E-02  0.101475664629E-01  0.108033749736E-01  0.115005170608E-01
  0.122414542365E-01  0.130287746689E-01  0.138651968172E-01  0.147535727000E-01  0.156968906955E-01
  0.166982777598E-01  0.177610009328E-01  0.188884679792E-01  0.200842269940E-01  0.213519647771E-01
  0.226955037545E-01  0.241187971966E-01  0.256259224512E-01  0.272210718737E-01  0.289085411007E-01
  0.306927142707E-01  0.325780457526E-01  0.345690378943E-01  0.366702142564E-01  0.388860877392E-01
  0.412211229624E-01  0.436796921970E-01  0.462660240962E-01  0.489841444169E-01  0.518378078730E-01
  0.548304202167E-01  0.579649496074E-01  0.612438263024E-01  0.646688296975E-01  0.682409617599E-01
  0.719603059393E-01  0.758258707239E-01  0.798354171370E-01  0.839852696541E-01  0.882701102762E-01
  0.926827558388E-01  0.972139190773E-01  0.101851954539E+00  0.106582591137E+00  0.111388654014E+00
  0.116249779452E+00  0.121142127818E+00  0.126038101085E+00  0.130906073174E+00  0.135710143461E+00
  0.140409926076E+00  0.144960390223E+00  0.149311769622E+00  0.153409562207E+00  0.157194644466E+00
  0.160603527987E+00  0.163568788883E+00  0.166019703453E+00  0.167883125412E+00  0.169084640907E+00
  0.169550036745E+00  0.169207114179E+00  0.167987874380E+00  0.165831091495E+00  0.162685273771E+00
  0.158511991467E+00  0.153289520945E+00  0.147016716022E+00  0.139716969482E+00  0.131442068594E+00
  0.122275678628E+00  0.112336108298E+00  0.101777923299E+00  0.907918827261E-01  0.796025853733E-01
  0.684631391049E-01  0.576461215970E-01  0.474301045229E-01  0.380810910912E-01  0.298283995276E-01
  0.228348480652E-01  0.171615981892E-01  0.127295915300E-01  0.933302378692E-02  0.676184088070E-02
  0.483959116354E-02  0.342068210784E-02  0.238686953529E-02  0.164361652238E-02  0.111651442534E-02
  0.747908715184E-03  0.493825913304E-03  0.321257311286E-03  0.205821670278E-03  0.129803207586E-03
  0.805425883204E-04  0.491465988944E-04  0.294756490379E-04  0.173660924458E-04  0.100454435407E-04
  0.570186135994E-05  0.317387547909E-05  0.173151771501E-05  0.925249467125E-06  0.483959811486E-06
  0.247624886078E-06  0.123857271007E-06  0.605187036047E-07  0.288660509672E-07  0.134305147733E-07
  0.609075950514E-08  0.269015201965E-08  0.115623997102E-08  0.483180530746E-09  0.196141862940E-09
  0.772723048435E-10  0.295153075191E-10  0.109194726344E-10  0.390869650343E-11  0.135228261503E-11
 pseudo wavefunction
  0.117258603937E-07  0.125008506305E-07  0.133270618304E-07  0.142078793097E-07  0.151469121283E-07
  0.161480078776E-07  0.172152684454E-07  0.183530668231E-07  0.195660650237E-07  0.208592331836E-07
  0.222378699276E-07  0.237076240792E-07  0.252745178061E-07  0.269449712957E-07  0.287258290608E-07
  0.306243879843E-07  0.326484272178E-07  0.348062400555E-07  0.371066679152E-07  0.395591365652E-07
  0.421736947454E-07  0.449610553408E-07  0.479326392766E-07  0.511006223144E-07  0.544779849407E-07
  0.580785655534E-07  0.619171171632E-07  0.660093678424E-07  0.703720851692E-07  0.750231449308E-07
  0.799816043680E-07  0.852677802597E-07  0.909033321695E-07  0.969113511926E-07  0.103316454570E-06
  0.110144886554E-06  0.117424625943E-06  0.125185500719E-06  0.133459310267E-06  0.142279955669E-06
  0.151683578610E-06  0.161708709462E-06  0.172396425162E-06  0.183790517521E-06  0.195937672650E-06
  0.208887662256E-06  0.222693547578E-06  0.237411896793E-06  0.253103016805E-06  0.269831200340E-06
  0.287664989381E-06  0.306677456011E-06  0.326946501818E-06  0.348555177087E-06  0.371592021087E-06
  0.396151424854E-06  0.422334017945E-06  0.450247080757E-06  0.480004984095E-06  0.511729657790E-06
  0.545551090298E-06  0.581607861305E-06  0.620047709543E-06  0.661028138132E-06  0.704717059926E-06
  0.751293485517E-06  0.800948256705E-06  0.853884828448E-06  0.910320102493E-06  0.970485316098E-06
  0.103462698949E-05  0.110300793597E-05  0.117590833871E-05  0.125362689881E-05  0.133648205913E-05
  0.142481330912E-05  0.151898257577E-05  0.161937570657E-05  0.172640405047E-05  0.184050614329E-05
  0.196214950455E-05  0.209183255305E-05  0.223008664906E-05  0.237747827144E-05  0.253461133872E-05
  0.270212968348E-05  0.288071969038E-05  0.307111310841E-05  0.327409004913E-05  0.349048218296E-05
  0.372117614674E-05  0.396711717655E-05  0.422931298054E-05  0.450883786774E-05  0.480683714977E-05
  0.512453183338E-05  0.546322362319E-05  0.582430025502E-05  0.620924118162E-05  0.661962363428E-05
  0.705712908494E-05  0.752355013539E-05  0.802079786172E-05  0.855090964418E-05  0.911605751447E-05
  0.971855705459E-05  0.103608768839E-04  0.110456487729E-04  0.117756784256E-04  0.125539569743E-04
  0.133836732340E-04  0.142682267666E-04  0.152112418080E-04  0.162165821164E-04  0.172883668009E-04
  0.184309871964E-04  0.196491248533E-04  0.209477707165E-04  0.223322455705E-04  0.238082218368E-04
  0.253817468104E-04  0.270592674319E-04  0.288476566965E-04  0.307542418075E-04  0.327868341899E-04
  0.349537614872E-04  0.372639016709E-04  0.397267194047E-04  0.423523048103E-04  0.451514147931E-04
  0.481355170994E-04  0.513168372818E-04  0.547084087680E-04  0.583241262359E-04  0.621788025135E-04
  0.662882292370E-04  0.706692415141E-04  0.753397868576E-04  0.803189986702E-04  0.856272745812E-04
  0.912863599555E-04  0.973194369144E-04  0.103751219234E-03  0.110608053505E-03  0.117918026973E-03
  0.125711082492E-03  0.134019141062E-03  0.142876232459E-03  0.152318634473E-03  0.162385021334E-03
  0.173116621936E-03  0.184557388481E-03  0.196754176250E-03  0.209756935231E-03  0.223618914366E-03
  0.238396879268E-03  0.254151344279E-03  0.270946819818E-03  0.288852076017E-03  0.307940423722E-03
  0.328290013983E-03  0.349984157266E-03  0.373111663661E-03  0.397767205471E-03  0.424051703638E-03
  0.452072739572E-03  0.481944994050E-03  0.513790714924E-03  0.547740215557E-03  0.583932405955E-03
  0.622515358748E-03  0.663646912278E-03  0.707495313196E-03  0.754239901160E-03  0.804071838332E-03
  0.857194886598E-03  0.913826235582E-03  0.974197384751E-03  0.103855508307E-02  0.110716232996E-02
  0.118029944142E-02  0.125826518557E-02  0.134137799201E-02  0.142997723972E-02  0.152442462854E-02
  0.162510563939E-02  0.173243108911E-02  0.184683878565E-02  0.196879529003E-02  0.209879779182E-02
  0.223737610511E-02  0.238509479262E-02  0.254255542573E-02  0.271039898892E-02  0.288930843758E-02
  0.308001141826E-02  0.328328316156E-02  0.349994955784E-02  0.373089042684E-02  0.397704299269E-02
  0.423940557641E-02  0.451904151869E-02  0.481708334623E-02  0.513473719572E-02  0.547328750985E-02
  0.583410202093E-02  0.621863703767E-02  0.662844305185E-02  0.706517068197E-02  0.753057697156E-02
  0.802653206051E-02  0.855502624815E-02  0.911817746742E-02  0.971823918973E-02  0.103576087804E-01
  0.110388363252E-01  0.117646339470E-01  0.125378856344E-01  0.133616576007E-01  0.142392091919E-01
  0.151740043639E-01  0.161697237444E-01  0.172302772956E-01  0.183598175912E-01  0.195627537185E-01
  0.208437658144E-01  0.222078202376E-01  0.236601853776E-01  0.252064480940E-01  0.268525307730E-01
  0.286047089804E-01  0.304696296802E-01  0.324543299798E-01  0.345662563461E-01  0.368132842252E-01
  0.392037379807E-01  0.417464110447E-01  0.444505861549E-01  0.473260555246E-01  0.503831407616E-01
  0.536327123215E-01  0.570862082391E-01  0.607556518409E-01  0.646536680912E-01  0.687934981698E-01
  0.731890118180E-01  0.778547169168E-01  0.828057656881E-01  0.880579568187E-01  0.936277327134E-01
  0.995321709753E-01  0.105788969095E+00  0.112416421199E+00  0.119433385575E+00  0.126859241517E+00
  0.134713833906E+00  0.143017403712E+00  0.151790502470E+00  0.161053888531E+00  0.170828402723E+00
  0.181134820803E+00  0.191993679893E+00  0.203425075868E+00  0.215448428429E+00  0.228082210440E+00
  0.241343637908E+00  0.255248316862E+00  0.269809843310E+00  0.285039352438E+00  0.300945013303E+00
  0.317531465470E+00  0.334799194410E+00  0.352743843009E+00  0.371355457326E+00  0.390617665788E+00
  0.410506792412E+00  0.430990906454E+00  0.452028813129E+00  0.473568992885E+00  0.495548500135E+00
  0.517891836491E+00  0.540509818448E+00  0.563298465231E+00  0.586137939151E+00  0.608891578380E+00
  0.631405070524E+00  0.653505824670E+00  0.675002609536E+00  0.695685535825E+00  0.715326471287E+00
  0.733679987059E+00  0.750484942558E+00  0.765466822778E+00  0.778340944879E+00  0.788816648923E+00
  0.796602578476E+00  0.801413138380E+00  0.802976186422E+00  0.801041970114E+00  0.795393256055E+00
  0.785856514335E+00  0.772313911324E+00  0.754715729036E+00  0.733092667468E+00  0.707567299738E+00
  0.678363743424E+00  0.645814395172E+00  0.610362365069E+00  0.572558066179E+00  0.533048295736E+00
  0.492556131001E+00  0.451850108673E+00  0.411701525917E+00  0.372829364157E+00  0.335833365111E+00
  0.301117243875E+00  0.268818982738E+00  0.238919153776E+00  0.211379611201E+00  0.186143687705E+00
  0.163138152998E+00  0.142275614834E+00  0.123456931717E+00  0.106573585080E+00  0.915099661978E-01
  0.781455435174E-01  0.663568854648E-01  0.560195219888E-01  0.470096331162E-01  0.392055564920E-01
  0.324891081329E-01  0.267467128074E-01  0.218703427601E-01  0.177582662409E-01  0.143156103457E-01
  0.114547458522E-01  0.909550475696E-02  0.716524386015E-02  0.559876986067E-02  0.433814296084E-02
  0.333237699552E-02  0.253705467105E-02  0.191387667514E-02  0.143016324244E-02  0.105832613643E-02
  0.775327954429E-03  0.562144107998E-03  0.403240838732E-03  0.286080290857E-03  0.200661120837E-03
  0.139100542988E-03  0.952612439992E-04  0.644243775085E-04  0.430079643465E-04  0.283285265352E-04
 ae wavefunction
 -0.359551417869E-05 -0.380982874622E-05 -0.403606862271E-05 -0.427494912836E-05 -0.452722644261E-05
 -0.479370011304E-05 -0.507521570186E-05 -0.537266760553E-05 -0.568700203275E-05 -0.601922016865E-05
 -0.637038152707E-05 -0.674160750441E-05 -0.713408516500E-05 -0.754907122932E-05 -0.798789633803E-05
 -0.845196955416E-05 -0.894278315626E-05 -0.946191771756E-05 -0.100110475046E-04 -0.105919462108E-04
 -0.112064930380E-04 -0.118566791633E-04 -0.125446146034E-04 -0.132725355046E-04 -0.140428118924E-04
 -0.148579558993E-04 -0.157206305071E-04 -0.166336588380E-04 -0.176000340251E-04 -0.186229297005E-04
 -0.197057111427E-04 -0.208519471230E-04 -0.220654224949E-04 -0.233501515760E-04 -0.247103923720E-04
 -0.261506616960E-04 -0.276757512402E-04 -0.292907446639E-04 -0.310010357555E-04 -0.328123477461E-04
 -0.347307538415E-04 -0.367626990528E-04 -0.389150234087E-04 -0.411949866369E-04 -0.436102944091E-04
 -0.461691262479E-04 -0.488801652034E-04 -0.517526294102E-04 -0.547963056463E-04 -0.580215850196E-04
 -0.614395009180E-04 -0.650617693681E-04 -0.689008319508E-04 -0.729699014440E-04 -0.772830103552E-04
 -0.818550625346E-04 -0.867018880604E-04 -0.918403016022E-04 -0.972881644847E-04 -0.103064450678E-03
 -0.109189316975E-03 -0.115684177599E-03 -0.122571783539E-03 -0.129876306900E-03 -0.137623430578E-03
 -0.145840443597E-03 -0.154556342469E-03 -0.163801938930E-03 -0.173609974473E-03 -0.184015242087E-03
 -0.195054715638E-03 -0.206767687394E-03 -0.219195914161E-03 -0.232383772587E-03 -0.246378424175E-03
 -0.261229990624E-03 -0.276991740108E-03 -0.293720285171E-03 -0.311475792928E-03 -0.330322208341E-03
 -0.350327491364E-03 -0.371563868735E-03 -0.394108101393E-03 -0.418041768340E-03 -0.443451568077E-03
 -0.470429638453E-03 -0.499073896263E-03 -0.529488397567E-03 -0.561783719999E-03 -0.596077368467E-03
 -0.632494205407E-03 -0.671166907197E-03 -0.712236448154E-03 -0.755852613714E-03 -0.802174544457E-03
 -0.851371312784E-03 -0.903622534011E-03 -0.959119013898E-03 -0.101806343460E-02 -0.108067108117E-02
 -0.114717061092E-02 -0.121780486791E-02 -0.129283174504E-02 -0.137252509634E-02 -0.145717570214E-02
 -0.154709228992E-02 -0.164260261368E-02 -0.174405459512E-02 -0.185181752944E-02 -0.196628335947E-02
 -0.208786802119E-02 -0.221701286450E-02 -0.235418615267E-02 -0.249988464451E-02 -0.265463526305E-02
 -0.281899685480E-02 -0.299356204384E-02 -0.317895918500E-02 -0.337585442047E-02 -0.358495384437E-02
 -0.380700577994E-02 -0.404280317378E-02 -0.429318611210E-02 -0.455904446363E-02 -0.484132065378E-02
 -0.514101257523E-02 -0.545917663927E-02 -0.579693097285E-02 -0.615545876579E-02 -0.653601177270E-02
 -0.693991397382E-02 -0.736856539893E-02 -0.782344611797E-02 -0.830612040197E-02 -0.881824105724E-02
 -0.936155393531E-02 -0.993790262070E-02 -0.105492332978E-01 -0.111975997974E-01 -0.118851688224E-01
 -0.126142253517E-01 -0.133871782195E-01 -0.142065658663E-01 -0.150750622565E-01 -0.159954829560E-01
 -0.169707913606E-01 -0.180041050650E-01 -0.190987023592E-01 -0.202580288381E-01 -0.214857041038E-01
 -0.227855285424E-01 -0.241614901487E-01 -0.256177713717E-01 -0.271587559494E-01 -0.287890356952E-01
 -0.305134171962E-01 -0.323369283773E-01 -0.342648248780E-01 -0.363025961871E-01 -0.384559714680E-01
 -0.407309250072E-01 -0.431336812045E-01 -0.456707190217E-01 -0.483487757933E-01 -0.511748502962E-01
 -0.541562049661E-01 -0.573003671363E-01 -0.606151291669E-01 -0.641085473177E-01 -0.677889392110E-01
 -0.716648797135E-01 -0.757451950579E-01 -0.800389550104E-01 -0.845554628760E-01 -0.893042431227E-01
 -0.942950263881E-01 -0.995377316237E-01 -0.105042445112E+00 -0.110819396083E+00 -0.116878928643E+00
 -0.123231469714E+00 -0.129887492671E+00 -0.136857476357E+00 -0.144151859142E+00 -0.151780987688E+00
 -0.159755060077E+00 -0.168084062952E+00 -0.176777702327E+00 -0.185845327723E+00 -0.195295849290E+00
 -0.205137647594E+00 -0.215378475766E+00 -0.226025353719E+00 -0.237084454186E+00 -0.248560980355E+00
 -0.260459034924E+00 -0.272781480457E+00 -0.285529790969E+00 -0.298703894753E+00 -0.312302008536E+00
 -0.326320463146E+00 -0.340753520976E+00 -0.355593185660E+00 -0.370829004491E+00 -0.386447864297E+00
 -0.402433781625E+00 -0.418767688294E+00 -0.435427213601E+00 -0.452386464651E+00 -0.469615806568E+00
 -0.487081644559E+00 -0.504746210036E+00 -0.522567353174E+00 -0.540498344376E+00 -0.558487687064E+00
 -0.576478944017E+00 -0.594410579033E+00 -0.612215815314E+00 -0.629822511392E+00 -0.647153055461E+00
 -0.664124279512E+00 -0.680647396167E+00 -0.696627963482E+00 -0.711965885925E+00 -0.726555462470E+00
 -0.740285494686E+00 -0.753039468107E+00 -0.764695818701E+00 -0.775128292893E+00 -0.784206404877E+00
 -0.791795990048E+00 -0.797759850083E+00 -0.801958484491E+00 -0.804250905075E+00 -0.804495531961E+00
 -0.802551171480E+00 -0.798278076236E+00 -0.791539086434E+00 -0.782200850001E+00 -0.770135117127E+00
 -0.755220103590E+00 -0.737341915784E+00 -0.716396029429E+00 -0.692288812403E+00 -0.664939080972E+00
 -0.634279676788E+00 -0.600259050340E+00 -0.562842834318E+00 -0.522015388143E+00 -0.477781292585E+00
 -0.430166770954E+00 -0.379221010995E+00 -0.325017359664E+00 -0.267654361282E+00 -0.207256608742E+00
 -0.143975377612E+00 -0.779890141844E-01 -0.950305078059E-02  0.612499756850E-01  0.134011024159E+00
  0.208495392117E+00  0.284393929550E+00  0.361374664625E+00  0.439084893433E+00  0.517153783202E+00
  0.595195486717E+00  0.672812622307E+00  0.749599722051E+00  0.825145999083E+00  0.899036800157E+00
  0.970853736618E+00  0.104017470116E+01  0.110657600169E+01  0.116963824526E+01  0.122895511175E+01
  0.128414217507E+01  0.133484366362E+01  0.138073710481E+01  0.142153682238E+01  0.145699706236E+01
  0.148691502023E+01  0.151113369710E+01  0.152954436650E+01  0.154208841407E+01  0.154875836935E+01
  0.154959803620E+01  0.154470170711E+01  0.153421251082E+01  0.151831997489E+01  0.149725690585E+01
  0.147129569347E+01  0.144074415218E+01  0.140594100176E+01  0.136725109409E+01  0.132506047767E+01
  0.127977139097E+01  0.123179726290E+01  0.118155779058E+01  0.112947415968E+01  0.107596445833E+01
  0.102143933421E+01  0.966297936731E+00  0.910924181584E+00  0.855683371543E+00  0.800919206061E+00
  0.746951203137E+00  0.694072558001E+00  0.642548451620E+00  0.592614814523E+00  0.544477541006E+00
  0.498312138215E+00  0.454263785303E+00  0.412447771272E+00  0.372950277103E+00  0.335829468443E+00
  0.301116868308E+00  0.268818982738E+00  0.238919153776E+00  0.211379611201E+00  0.186143687705E+00
  0.163138152998E+00  0.142275614834E+00  0.123456931717E+00  0.106573585080E+00  0.915099661978E-01
  0.781455435174E-01  0.663568854648E-01  0.560195219888E-01  0.470096331162E-01  0.392055564920E-01
  0.324891081329E-01  0.267467128074E-01  0.218703427601E-01  0.177582662409E-01  0.143156103457E-01
  0.114547458522E-01  0.909550475696E-02  0.716524386015E-02  0.559876986067E-02  0.433814296084E-02
  0.333237699552E-02  0.253705467105E-02  0.191387667514E-02  0.143016324244E-02  0.105832613643E-02
  0.775327954429E-03  0.562144107998E-03  0.403240838732E-03  0.286080290857E-03  0.200661120837E-03
  0.139100542988E-03  0.952612439992E-04  0.644243775085E-04  0.430079643465E-04  0.283285265352E-04
 pseudo wavefunction
 -0.948741754293E-09 -0.101144637147E-08 -0.107829528706E-08 -0.114956240765E-08 -0.122553974299E-08
 -0.130653860244E-08 -0.139289087054E-08 -0.148495036688E-08 -0.158309429582E-08 -0.168772479205E-08
 -0.179927056832E-08 -0.191818867202E-08 -0.204496635787E-08 -0.218012308444E-08 -0.232421264254E-08
 -0.247782542433E-08 -0.264159084239E-08 -0.281617990869E-08 -0.300230798394E-08 -0.320073770876E-08
 -0.341228212849E-08 -0.363780802455E-08 -0.387823946602E-08 -0.413456159584E-08 -0.440782466743E-08
 -0.469914834789E-08 -0.500972630578E-08 -0.534083110201E-08 -0.569381940403E-08 -0.607013754462E-08
 -0.647132744810E-08 -0.689903294816E-08 -0.735500652328E-08 -0.784111647734E-08 -0.835935459478E-08
 -0.891184430166E-08 -0.950084936623E-08 -0.101287831744E-07 -0.107982186182E-07 -0.115118986382E-07
 -0.122727474621E-07 -0.130838825865E-07 -0.139486275503E-07 -0.148705255529E-07 -0.158533539716E-07
 -0.169011398389E-07 -0.180181763432E-07 -0.192090404191E-07 -0.204786115011E-07 -0.218320915161E-07
 -0.232750261980E-07 -0.248133278100E-07 -0.264532993699E-07 -0.282016604753E-07 -0.300655748365E-07
 -0.320526796285E-07 -0.341711167831E-07 -0.364295663495E-07 -0.388372820589E-07 -0.414041292407E-07
 -0.441406252437E-07 -0.470579825289E-07 -0.501681546110E-07 -0.534838850355E-07 -0.570187595929E-07
 -0.607872619839E-07 -0.648048331634E-07 -0.690879346069E-07 -0.736541157571E-07 -0.785220859298E-07
 -0.837117909701E-07 -0.892444949765E-07 -0.951428674247E-07 -0.101431076050E-06 -0.108134885869E-06
 -0.115281764742E-06 -0.122900995919E-06 -0.131023798013E-06 -0.139683452915E-06 -0.148915442150E-06
 -0.158757592253E-06 -0.169250229749E-06 -0.180436346375E-06 -0.192361775222E-06 -0.205075378518E-06
 -0.218629247817E-06 -0.233078917424E-06 -0.248483591914E-06 -0.264906388698E-06 -0.282414596612E-06
 -0.301079951591E-06 -0.320978930567E-06 -0.342193064788E-06 -0.364809273830E-06 -0.388920221698E-06
 -0.414624696443E-06 -0.442028014867E-06 -0.471242453978E-06 -0.502387710940E-06 -0.535591393424E-06
 -0.570989542355E-06 -0.608727189196E-06 -0.648958950060E-06 -0.691849659061E-06 -0.737575043523E-06
 -0.786322443790E-06 -0.838291580593E-06 -0.893695373106E-06 -0.952760811052E-06 -0.101572988441E-05
 -0.108286057456E-05 -0.115442791083E-05 -0.123072509692E-05 -0.131206471169E-05 -0.139877998918E-05
 -0.149122618333E-05 -0.158978202263E-05 -0.169485126100E-05 -0.180686433098E-05 -0.192628010611E-05
 -0.205358777963E-05 -0.218930886731E-05 -0.233399934238E-05 -0.248825191146E-05 -0.265269844068E-05
 -0.282801254192E-05 -0.301491232977E-05 -0.321416336032E-05 -0.342658176395E-05 -0.365303758469E-05
 -0.389445833994E-05 -0.415183281493E-05 -0.442621510741E-05 -0.471872893901E-05 -0.503057225088E-05
 -0.536302210221E-05 -0.571743989157E-05 -0.609527692226E-05 -0.649808033438E-05 -0.692749942750E-05
 -0.738529239967E-05 -0.787333353011E-05 -0.839362083459E-05 -0.894828422445E-05 -0.953959420234E-05
 -0.101699711297E-04 -0.108419951034E-04 -0.115584164814E-04 -0.123221670995E-04 -0.131363722252E-04
 -0.140043632949E-04 -0.149296914877E-04 -0.159161421886E-04 -0.169677503991E-04 -0.180888171577E-04
 -0.192839270346E-04 -0.205579667708E-04 -0.219161451351E-04 -0.233640140784E-04 -0.249074912685E-04
 -0.265528840934E-04 -0.283069152290E-04 -0.301767498708E-04 -0.321700247347E-04 -0.342948789429E-04
 -0.365599869109E-04 -0.389745933667E-04 -0.415485506343E-04 -0.442923583253E-04 -0.472172055910E-04
 -0.503350160940E-04 -0.536584958710E-04 -0.572011842645E-04 -0.609775081159E-04 -0.650028394191E-04
 -0.692935566480E-04 -0.738671099816E-04 -0.787420906633E-04 -0.839383047437E-04 -0.894768514682E-04
 -0.953802065873E-04 -0.101672310877E-03 -0.108378664174E-03 -0.115526425252E-03 -0.123144517852E-03
 -0.131263743248E-03 -0.139916899676E-03 -0.149138909037E-03 -0.158966951241E-03 -0.169440606617E-03
 -0.180602006807E-03 -0.192495994569E-03 -0.205170292943E-03 -0.218675684236E-03 -0.233066199283E-03
 -0.248399317450E-03 -0.264736177868E-03 -0.282141802336E-03 -0.300685330393E-03 -0.320440266978E-03
 -0.341484743132E-03 -0.363901790148E-03 -0.387779627537E-03 -0.413211965150E-03 -0.440298319715E-03
 -0.469144346008E-03 -0.499862182755E-03 -0.532570813284E-03 -0.567396440786E-03 -0.604472877925E-03
 -0.643941950308E-03 -0.685953913138E-03 -0.730667880102E-03 -0.778252263221E-03 -0.828885222061E-03
 -0.882755120260E-03 -0.940060986836E-03 -0.100101297919E-02 -0.106583284402E-02 -0.113475437169E-02
 -0.120802383852E-02 -0.128590043078E-02 -0.136865664253E-02 -0.145657863868E-02 -0.154996657252E-02
 -0.164913484565E-02 -0.175441229604E-02 -0.186614229756E-02 -0.198468275183E-02 -0.211040595027E-02
 -0.224369828061E-02 -0.238495974832E-02 -0.253460327921E-02 -0.269305376404E-02 -0.286074680062E-02
 -0.303812708229E-02 -0.322564637441E-02 -0.342376101227E-02 -0.363292884452E-02 -0.385360553578E-02
 -0.408624013029E-02 -0.433126976519E-02 -0.458911340722E-02 -0.486016446988E-02 -0.514478214950E-02
 -0.544328129783E-02 -0.575592062557E-02 -0.608288900535E-02 -0.642428961406E-02 -0.678012162266E-02
 -0.715025910639E-02 -0.753442680993E-02 -0.793217235916E-02 -0.834283446534E-02 -0.876550661629E-02
 -0.919899569490E-02 -0.964177490560E-02 -0.100919303262E-01 -0.105471003349E-01 -0.110044070903E-01
 -0.114603791686E-01 -0.119108643838E-01 -0.123509317385E-01 -0.127747613749E-01 -0.131755213184E-01
 -0.135452297356E-01 -0.138746013638E-01 -0.141528767187E-01 -0.143676326533E-01 -0.145045728310E-01
 -0.145472966981E-01 -0.144770456055E-01 -0.142724248446E-01 -0.139091005483E-01 -0.133594706737E-01
 -0.125923096501E-01 -0.115723867714E-01 -0.102600590525E-01 -0.861084008672E-02 -0.657494747467E-02
 -0.409683266382E-02 -0.111469859894E-02  0.243998753956E-02  0.664297698757E-02  0.115777052706E-01
  0.173357260417E-01  0.240170940691E-01  0.317306745122E-01  0.405943510944E-01  0.507351007847E-01
  0.622888972119E-01  0.754003993619E-01  0.902223763224E-01  0.106914813212E+00  0.125643638312E+00
  0.146579007298E+00  0.169893078016E+00  0.195757209219E+00  0.224338520156E+00  0.255795756127E+00
  0.290274419444E+00  0.327901147559E+00  0.368777352063E+00  0.412972176057E+00  0.460514884841E+00
  0.511386877874E+00  0.565513599814E+00  0.622756735581E+00  0.682907198004E+00  0.745679553654E+00
  0.810708677375E+00  0.877549569195E+00  0.945681394598E+00  0.101451690068E+01  0.108341838987E+01
  0.115172136623E+01  0.121879890649E+01  0.128433334381E+01  0.134816280414E+01  0.141012973080E+01
  0.147007911018E+01  0.152785826888E+01  0.158331711245E+01  0.163630884862E+01  0.000000000000E+00
  0.000000000000E+00  0.000000000000E+00  0.000000000000E+00  0.000000000000E+00  0.000000000000E+00
  0.000000000000E+00  0.000000000000E+00  0.000000000000E+00  0.000000000000E+00  0.000000000000E+00
  0.000000000000E+00  0.000000000000E+00  0.000000000000E+00  0.000000000000E+00  0.000000000000E+00
  0.000000000000E+00  0.000000000000E+00  0.000000000000E+00  0.000000000000E+00  0.000000000000E+00
  0.000000000000E+00  0.000000000000E+00  0.000000000000E+00  0.000000000000E+00  0.000000000000E+00
  0.000000000000E+00  0.000000000000E+00  0.000000000000E+00  0.000000000000E+00  0.000000000000E+00
 ae wavefunction
  0.167871187464E-05  0.177877357485E-05  0.188440309798E-05  0.199593442157E-05  0.211372060004E-05
  0.223813493605E-05  0.236957221616E-05  0.250845002727E-05  0.265521014704E-05  0.281032002122E-05
  0.297427432882E-05  0.314759664136E-05  0.333084119025E-05  0.352459472889E-05  0.372947852346E-05
  0.394615045500E-05  0.417530725731E-05  0.441768688838E-05  0.467407105092E-05  0.494528786947E-05
  0.523221472961E-05  0.553578129753E-05  0.585697272472E-05  0.619683305192E-05  0.655646882703E-05
  0.693705294681E-05  0.733982873867E-05  0.776611429836E-05  0.821730709879E-05  0.869488888659E-05
  0.920043088697E-05  0.973559933456E-05  0.103021613514E-04  0.109019911949E-04  0.115370768989E-04
  0.122095273329E-04  0.129215797055E-04  0.136756075432E-04  0.144741291696E-04  0.153198167233E-04
  0.162155057437E-04  0.171642053640E-04  0.181691091486E-04  0.192336066168E-04  0.203612954964E-04
  0.215559947531E-04  0.228217584469E-04  0.241628904649E-04  0.255839601909E-04  0.270898191660E-04
  0.286856188083E-04  0.303768292553E-04  0.321692594016E-04  0.340690782083E-04  0.360828373638E-04
  0.382174953800E-04  0.404804432194E-04  0.428795315435E-04  0.454230996901E-04  0.481200064844E-04
  0.509796630026E-04  0.540120674076E-04  0.572278419893E-04  0.606382725456E-04  0.642553502531E-04
  0.680918161782E-04  0.721612086002E-04  0.764779133143E-04  0.810572171043E-04  0.859153645813E-04
  0.910696185924E-04  0.965383244266E-04  0.102340978047E-03  0.108498298599E-03  0.115032305453E-03
  0.121966400069E-03  0.129325452970E-03  0.137135896134E-03  0.145425821134E-03  0.154225083385E-03
  0.163565412862E-03  0.173480531657E-03  0.184006278836E-03  0.195180742962E-03  0.207044402841E-03
  0.219640276842E-03  0.233014081460E-03  0.247214399535E-03  0.262292858748E-03  0.278304321032E-03
  0.295307083449E-03  0.313363091279E-03  0.332538163989E-03  0.352902234819E-03  0.374529604779E-03
  0.397499211879E-03  0.421894916431E-03  0.447805803365E-03  0.475326502472E-03  0.504557527593E-03
  0.535605635790E-03  0.568584207616E-03  0.603613649580E-03  0.640821820072E-03  0.680344479944E-03
  0.722325769091E-03  0.766918710391E-03  0.814285742407E-03  0.864599282366E-03  0.918042320925E-03
  0.974809050352E-03  0.103510552775E-02  0.109915037509E-02  0.116717551776E-02  0.123942696356E-02
  0.131616562398E-02  0.139766817965E-02  0.148422799215E-02  0.157615606397E-02  0.167378204898E-02
  0.177745531533E-02  0.188754606305E-02  0.200444649853E-02  0.212857206814E-02  0.226036275307E-02
  0.240028442779E-02  0.254883028416E-02  0.270652232362E-02  0.287391291922E-02  0.305158645001E-02
  0.324016100935E-02  0.344029018938E-02  0.365266494317E-02  0.387801552623E-02  0.411711351879E-02
  0.437077392994E-02  0.463985738468E-02  0.492527239429E-02  0.522797771038E-02  0.554898476237E-02
  0.588936017779E-02  0.625022838416E-02  0.663277429071E-02  0.703824604743E-02  0.746795787820E-02
  0.792329298400E-02  0.840570651108E-02  0.891672857801E-02  0.945796735445E-02  0.100311121830E-01
  0.106379367342E-01  0.112803021833E-01  0.119601603955E-01  0.126795571043E-01  0.134406350665E-01
  0.142456371741E-01  0.150969095012E-01  0.159969042623E-01  0.169481826542E-01  0.179534175514E-01
  0.190153960226E-01  0.201370216298E-01  0.213213164709E-01  0.225714229204E-01  0.238906050199E-01
  0.252822494644E-01  0.267498661272E-01  0.282970880605E-01  0.299276709021E-01  0.316454916161E-01
  0.334545464870E-01  0.353589482832E-01  0.373629224958E-01  0.394708025584E-01  0.416870239409E-01
  0.440161170077E-01  0.464626985232E-01  0.490314616809E-01  0.517271645251E-01  0.545546166305E-01
  0.575186638953E-01  0.606241713019E-01  0.638760034910E-01  0.672790029924E-01  0.708379659505E-01
  0.745576151826E-01  0.784425704030E-01  0.824973154488E-01  0.867261623433E-01  0.911332120361E-01
  0.957223116650E-01  0.100497008192E+00  0.105460498279E+00  0.110615574272E+00  0.115964566196E+00
  0.121509279671E+00  0.127250929679E+00  0.133190070161E+00  0.139326519428E+00  0.145659281444E+00
  0.152186463033E+00  0.158905187175E+00  0.165811502549E+00  0.172900289602E+00  0.180165163439E+00
  0.187598373976E+00  0.195190703814E+00  0.202931364464E+00  0.210807891603E+00  0.218806040196E+00
  0.226909680421E+00  0.235100695421E+00  0.243358882046E+00  0.251661855737E+00  0.259984960715E+00
  0.268301186561E+00  0.276581092049E+00  0.284792736947E+00  0.292901622222E+00  0.300870639142E+00
  0.308660028024E+00  0.316227348060E+00  0.323527460823E+00  0.330512531395E+00  0.337132052365E+00
  0.343332896843E+00  0.349059406843E+00  0.354253522700E+00  0.358854957648E+00  0.362801419491E+00
  0.366028879035E+00  0.368471883475E+00  0.370063912575E+00  0.370737776299E+00  0.370426053570E+00
  0.369061572617E+00  0.366577933374E+00  0.362910071841E+00  0.357994865580E+00  0.351771778659E+00
  0.344183543724E+00  0.335176878244E+00  0.324703231452E+00  0.312719557814E+00  0.299189112209E+00
  0.284082261110E+00  0.267377303141E+00  0.249061291310E+00  0.229130848048E+00  0.207592963004E+00
  0.184465762270E+00  0.159779236481E+00  0.133575914181E+00  0.105911465915E+00  0.768552239741E-01
  0.464906026717E-01  0.149154043985E-01 -0.177580023827E-01 -0.514026460536E-01 -0.858770679978E-01
 -0.121025605174E+00 -0.156678855466E+00 -0.192654347763E+00 -0.228757444249E+00 -0.264782499839E+00
 -0.300514276920E+00 -0.335729542537E+00 -0.370198654353E+00 -0.403686827095E+00 -0.435954792279E+00
 -0.466758879970E+00 -0.495851133493E+00 -0.522980529410E+00 -0.547896042721E+00 -0.570351088612E+00
 -0.590107963719E+00 -0.606941308934E+00 -0.620640601808E+00 -0.631012151534E+00 -0.637880957558E+00
 -0.641092546986E+00 -0.640514743558E+00 -0.636039256519E+00 -0.627582973671E+00 -0.615088873883E+00
 -0.598526517158E+00 -0.577892107973E+00 -0.553208156519E+00 -0.524522776697E+00 -0.491908668053E+00
 -0.455461830051E+00 -0.415300058341E+00 -0.371561267687E+00 -0.324401686307E+00 -0.273993959755E+00
 -0.220525200517E+00 -0.164195014077E+00 -0.105213528523E+00 -0.437994523178E-01  0.198218189094E-01
  0.854200260138E-01  0.152761781112E+00  0.221612194502E+00  0.291736375142E+00  0.362900788275E+00
  0.434874455093E+00  0.507429988139E+00  0.580344457285E+00  0.653400092268E+00  0.726384830063E+00
  0.799092718071E+00  0.871324179716E+00  0.942886141528E+00  0.101359200928E+01  0.108326147405E+01
  0.115172013033E+01  0.121879890649E+01  0.128433334381E+01  0.134816280414E+01  0.141012973080E+01
  0.147007911018E+01  0.152785826888E+01  0.158331711245E+01  0.163630884862E+01  0.000000000000E+00
  0.000000000000E+00  0.000000000000E+00  0.000000000000E+00  0.000000000000E+00  0.000000000000E+00
  0.000000000000E+00  0.000000000000E+00  0.000000000000E+00  0.000000000000E+00  0.000000000000E+00
  0.000000000000E+00  0.000000000000E+00  0.000000000000E+00  0.000000000000E+00  0.000000000000E+00
  0.000000000000E+00  0.000000000000E+00  0.000000000000E+00  0.000000000000E+00  0.000000000000E+00
  0.000000000000E+00  0.000000000000E+00  0.000000000000E+00  0.000000000000E+00  0.000000000000E+00
  0.000000000000E+00  0.000000000000E+00  0.000000000000E+00  0.000000000000E+00  0.000000000000E+00
 pseudo wavefunction
  0.457472633914E-12  0.503567148177E-12  0.554306102528E-12  0.610157466401E-12  0.671636361389E-12
  0.739309812253E-12  0.813801976639E-12  0.895799901733E-12  0.986059860947E-12  0.108541432910E-11
  0.119477966038E-11  0.131516453998E-11  0.144767928724E-11  0.159354609628E-11  0.175411030830E-11
  0.193085281985E-11  0.212540374122E-11  0.233955743106E-11  0.257528904594E-11  0.283477275735E-11
  0.312040180422E-11  0.343481056601E-11  0.378089885979E-11  0.416185868544E-11  0.458120366576E-11
  0.504280145287E-11  0.555090939987E-11  0.611021382675E-11  0.672587324268E-11  0.740356592336E-11
  0.814954228217E-11  0.897068251825E-11  0.987456007311E-11  0.108695114811E-10  0.119647132577E-10
  0.131702665357E-10  0.144972902282E-10  0.159580235796E-10  0.175659390489E-10  0.193358665672E-10
  0.212841303155E-10  0.234286992835E-10  0.257893529995E-10  0.283878639579E-10  0.312481984290E-10
  0.343967375016E-10  0.378625203976E-10  0.416775123032E-10  0.458768991858E-10  0.504994123173E-10
  0.555876854950E-10  0.611886482564E-10  0.673539587141E-10  0.741404800015E-10  0.816108047263E-10
  0.898338322665E-10  0.988854042336E-10  0.108849003966E-09  0.119816526500E-09  0.131889126128E-09
  0.145178149345E-09  0.159806161812E-09  0.175908078780E-09  0.193632409428E-09  0.213142626570E-09
  0.234618674376E-09  0.258258628008E-09  0.284280520479E-09  0.312924353583E-09  0.344454311451E-09
  0.379161197129E-09  0.417365114676E-09  0.459418421499E-09  0.505708978165E-09  0.556663725656E-09
  0.612752623068E-09  0.674492982066E-09  0.742454238072E-09  0.817263202189E-09  0.899609842309E-09
  0.990253646709E-09  0.109003062884E-08  0.119986103789E-08  0.132075784629E-08  0.145383609237E-08
  0.160032316439E-08  0.176157012073E-08  0.193906415077E-08  0.213444229119E-08  0.234950652440E-08
  0.258624039823E-08  0.284682732013E-08  0.313367069475E-08  0.344941609047E-08  0.379697563939E-08
  0.417955489589E-08  0.460068240123E-08  0.506424222720E-08  0.557450979863E-08  0.613619132538E-08
  0.675446720733E-08  0.743503981275E-08  0.818418607072E-08  0.900881536250E-08  0.991653324596E-08
  0.109157116006E-07  0.120155658399E-07  0.132262399042E-07  0.145588998156E-07  0.160258366604E-07
  0.176405799471E-07  0.194180223859E-07  0.213745572400E-07  0.235282295164E-07  0.258989023893E-07
  0.285084403917E-07  0.313809110642E-07  0.345428069205E-07  0.380232897769E-07  0.418544596985E-07
  0.460716510430E-07  0.507137583302E-07  0.558235949451E-07  0.614482879794E-07  0.676397128541E-07
  0.744549717306E-07  0.819569201208E-07  0.902147465532E-07  0.993046106389E-07  0.109310345421E-06
  0.120324230484E-06  0.132447842951E-06  0.145792994212E-06  0.160482761027E-06  0.176652620499E-06
  0.194451699395E-06  0.214044149313E-06  0.235610660396E-06  0.259350127528E-06  0.285481484375E-06
  0.314245722183E-06  0.345908111943E-06  0.380760650388E-06  0.419124752386E-06  0.461354214532E-06
  0.507838477250E-06  0.559006215475E-06  0.615329290990E-06  0.677327102847E-06  0.745571375945E-06
  0.820691431898E-06  0.903379990728E-06  0.994399556845E-06  0.109458944813E-05  0.120487353284E-05
  0.132626874563E-05  0.145989446107E-05  0.160698281096E-05  0.176889004048E-05  0.194710900762E-05
  0.214328294106E-05  0.235922058294E-05  0.259691285607E-05  0.285855120871E-05  0.314654780575E-05
  0.346355775211E-05  0.381250355240E-05  0.419660203203E-05  0.461939396703E-05  0.508477669483E-05
  0.559704000572E-05  0.616090564452E-05  0.678157078523E-05  0.746475587769E-05  0.821675730527E-05
  0.904450533676E-05  0.995562790373E-05  0.109585207880E-04  0.120624248624E-04  0.132775110922E-04
  0.146149740752E-04  0.160871349766E-04  0.177075548001E-04  0.194911590295E-04  0.214543747812E-04
  0.236152817173E-04  0.259937780980E-04  0.286117634857E-04  0.314933397649E-04  0.346650323086E-04
  0.381560332999E-04  0.419984694217E-04  0.462276963414E-04  0.508826226616E-04  0.560060662694E-04
  0.616451463057E-04  0.678517142968E-04  0.746828283340E-04  0.822012745720E-04  0.904761407345E-04
  0.995834467738E-04  0.109606838334E-03  0.120638349216E-03  0.132779239652E-03  0.146140917839E-03
  0.160845952935E-03  0.177029188463E-03  0.194838965985E-03  0.214438469797E-03  0.236007204468E-03
  0.259742618135E-03  0.285861885718E-03  0.314603867519E-03  0.346231260164E-03  0.381032958370E-03
  0.419326647806E-03  0.461461651101E-03  0.507822051152E-03  0.558830118017E-03  0.614950068080E-03
  0.676692186726E-03  0.744617348544E-03  0.819341972019E-03  0.901543448919E-03  0.991966091994E-03
  0.109142764828E-02  0.120082642926E-02  0.132114911321E-02  0.145347927973E-02  0.159900674085E-02
  0.175903773822E-02  0.193500608115E-02  0.212848530538E-02  0.234120193839E-02  0.257504996246E-02
  0.283210657282E-02  0.311464933384E-02  0.342517484227E-02  0.376641901190E-02  0.414137909968E-02
  0.455333759792E-02  0.500588812169E-02  0.550296342352E-02  0.604886566998E-02  0.664829911481E-02
  0.730640530216E-02  0.802880092919E-02  0.882161849051E-02  0.969154981571E-02  0.106458925959E-01
  0.116925999743E-01  0.128403332470E-01  0.140985176863E-01  0.154774014509E-01  0.169881174944E-01
  0.186427483094E-01  0.204543932650E-01  0.224372381881E-01  0.246066267198E-01  0.269791328287E-01
  0.295726336923E-01  0.324063819519E-01  0.355010761096E-01  0.388789275575E-01  0.425637224144E-01
  0.465808759715E-01  0.509574771384E-01  0.557223198022E-01  0.609059174824E-01  0.665404970708E-01
  0.726599667902E-01  0.792998527865E-01  0.864971979948E-01  0.942904160910E-01  0.102719092474E+00
  0.111823723335E+00  0.121645382975E+00  0.132225308704E+00  0.143604391845E+00  0.155822562799E+00
  0.168918057656E+00  0.182926553791E+00  0.197880162200E+00  0.213806265230E+00  0.230726190026E+00
  0.248653710593E+00  0.267593375134E+00  0.287538660507E+00  0.308469962516E+00  0.330352439653E+00
  0.353133739040E+00  0.376741647096E+00  0.401081723949E+00  0.426035000061E+00  0.451455835895E+00
  0.477170070447E+00  0.502973611574E+00  0.528631649320E+00  0.553878701228E+00  0.578419723860E+00
  0.601932544134E+00  0.624071873706E+00  0.644475164060E+00  0.662770532888E+00  0.678586936074E+00
  0.691566665524E+00  0.701380112150E+00  0.707742536678E+00  0.710432331275E+00  0.709309928435E+00
  0.704336121985E+00  0.695588119770E+00  0.683271172716E+00  0.667723162812E+00  0.649409147688E+00
  0.628902643264E+00  0.606850498943E+00  0.583918730444E+00  0.560717792921E+00  0.537707675562E+00
  0.515090815463E+00  0.492875433040E+00  0.471076315003E+00  0.449708737140E+00  0.428785690246E+00
  0.408318411244E+00  0.388316866111E+00  0.368790170738E+00  0.349746942670E+00  0.331195580100E+00
  0.313144471982E+00  0.295602137988E+00  0.278577297369E+00  0.262078862236E+00  0.246115851564E+00
  0.230697222644E+00  0.215831623729E+00  0.201527078663E+00  0.187790624336E+00  0.174627929995E+00
  0.162042932861E+00  0.150037524512E+00  0.138611319035E+00  0.127761523384E+00  0.117482918033E+00
  0.107767948565E+00  0.986069132535E-01  0.899882255529E-01  0.818987241811E-01  0.743240007730E-01
  0.672487153355E-01  0.606568730984E-01  0.545320426102E-01  0.488575036082E-01  0.436163232667E-01
 ae wavefunction
  0.228307780547E-09  0.249955455527E-09  0.273440386179E-09  0.298936056363E-09  0.326631025282E-09
  0.356730358068E-09  0.389457182415E-09  0.425054387556E-09  0.463786475027E-09  0.505941578704E-09
  0.551833668617E-09  0.601804956099E-09  0.656228522854E-09  0.715511187018E-09  0.780096640000E-09
  0.850468869489E-09  0.927155903034E-09  0.101073389795E-08  0.110183161363E-08  0.120113530195E-08
  0.130939405307E-08  0.142742564426E-08  0.155612293605E-08  0.169646086921E-08  0.184950412105E-08
  0.201641548184E-08  0.219846502132E-08  0.239704012122E-08  0.261365645614E-08  0.284997001307E-08
  0.310779025074E-08  0.338909450678E-08  0.369604377293E-08  0.403099997024E-08  0.439654486828E-08
  0.479550080671E-08  0.523095339267E-08  0.570627636603E-08  0.622515883899E-08  0.679163514307E-08
  0.741011753269E-08  0.808543202351E-08  0.882285766853E-08  0.962816960537E-08  0.105076862406E-07
  0.114683209726E-07  0.125176388940E-07  0.136639189572E-07  0.149162221357E-07  0.162844661621E-07
  0.177795074864E-07  0.194132311559E-07  0.211986493882E-07  0.231500096889E-07  0.252829134401E-07
  0.276144459852E-07  0.301633193326E-07  0.329500287086E-07  0.359970243172E-07  0.393288997864E-07
  0.429725989428E-07  0.469576426966E-07  0.513163780136E-07  0.560842511295E-07  0.613001073862E-07
  0.670065202857E-07  0.732501526388E-07  0.800821529348E-07  0.875585903947E-07  0.957409324946E-07
  0.104696569111E-06  0.114499387872E-06  0.125230405714E-06  0.136978462172E-06  0.149840980405E-06
  0.163924802671E-06  0.179347107471E-06  0.196236416382E-06  0.214733699386E-06  0.234993588294E-06
  0.257185708926E-06  0.281496143541E-06  0.308129036420E-06  0.337308356426E-06  0.369279832135E-06
  0.404313076052E-06  0.442703916821E-06  0.484776959393E-06  0.530888395516E-06  0.581429089165E-06
  0.636827963377E-06  0.697555718213E-06  0.764128911923E-06  0.837114440758E-06  0.917134456167E-06
  0.100487176205E-05  0.110107573858E-05  0.120656884384E-05  0.132225374934E-05  0.144912117087E-05
  0.158825846202E-05  0.174085904443E-05  0.190823275535E-05  0.209181720149E-05  0.229319021611E-05
  0.251408352582E-05  0.275639774367E-05  0.302221881600E-05  0.331383606301E-05  0.363376196582E-05
  0.398475386760E-05  0.436983777197E-05  0.479233443921E-05  0.525588799960E-05  0.576449732397E-05
  0.632255041382E-05  0.693486209764E-05  0.760671534794E-05  0.834390656043E-05  0.915279517131E-05
  0.100403580211E-04  0.110142489116E-04  0.120828638452E-04  0.132554124779E-04  0.145419963673E-04
  0.159536946517E-04  0.175026578496E-04  0.192022105348E-04  0.210669637101E-04  0.231129377739E-04
  0.253576970567E-04  0.278204969898E-04  0.305224450624E-04  0.334866768265E-04  0.367385483183E-04
  0.403058463839E-04  0.442190185282E-04  0.485114240424E-04  0.532196083202E-04  0.583836024311E-04
  0.640472501990E-04  0.702585652199E-04  0.770701204583E-04  0.845394732803E-04  0.927296290159E-04
  0.101709546397E-03  0.111554688490E-03  0.122347623023E-03  0.134178676340E-03  0.147146645517E-03
  0.161359573558E-03  0.176935592940E-03  0.194003843214E-03  0.212705468756E-03  0.233194703244E-03
  0.255640047911E-03  0.280225551130E-03  0.307152197432E-03  0.336639414600E-03  0.368926708114E-03
  0.404275432808E-03  0.442970712274E-03  0.485323517205E-03  0.531672914604E-03  0.582388500472E-03
  0.637873029376E-03  0.698565255040E-03  0.764942996911E-03  0.837526448415E-03  0.916881743463E-03
  0.100362479853E-02  0.109842544843E-02  0.120201189474E-02  0.131517548650E-02  0.143877585354E-02
  0.157374641352E-02  0.172110027434E-02  0.188193655392E-02  0.205744714010E-02  0.224892391335E-02
  0.245776645527E-02  0.268549026590E-02  0.293373551246E-02  0.320427633168E-02  0.349903070725E-02
  0.382007094274E-02  0.416963474892E-02  0.455013696269E-02  0.496418191239E-02  0.541457644181E-02
  0.590434360152E-02  0.643673701256E-02  0.701525590278E-02  0.764366081080E-02  0.832598994669E-02
  0.906657619098E-02  0.987006470651E-02  0.107414311279E-01  0.116860002845E-01  0.127094653999E-01
  0.138179077024E-01  0.150178163624E-01  0.163161086632E-01  0.177201502937E-01  0.192377756339E-01
  0.208773078897E-01  0.226475789120E-01  0.245579485186E-01  0.266183231186E-01  0.288391734169E-01
  0.312315509616E-01  0.338071032713E-01  0.365780872573E-01  0.395573806232E-01  0.427584908786E-01
  0.461955615406E-01  0.498833750046E-01  0.538373514498E-01  0.580735430007E-01  0.626086222291E-01
  0.674598639825E-01  0.726451195033E-01  0.781827819158E-01  0.840917423921E-01  0.903913366508E-01
  0.971012818156E-01  0.104241603992E+00  0.111832557092E+00  0.119894533373E+00  0.128447965822E+00
  0.137513221959E+00  0.147110488106E+00  0.157259642909E+00  0.167980119040E+00  0.179290752351E+00
  0.191209618243E+00  0.203753855325E+00  0.216939476563E+00  0.230781168247E+00  0.245292077082E+00
  0.260483585879E+00  0.276365078505E+00  0.292943695069E+00  0.310224078685E+00  0.328208115610E+00
  0.346894671019E+00  0.366279323208E+00  0.386354099577E+00  0.407107218219E+00  0.428522839546E+00
  0.450580832745E+00  0.473256562140E+00  0.496520698722E+00  0.520339061853E+00  0.544672495794E+00
  0.569476785097E+00  0.594702612335E+00  0.620295561622E+00  0.646196172734E+00  0.672340054031E+00
  0.698658069555E+00  0.725076625626E+00  0.751518093705E+00  0.777901410435E+00  0.804142875775E+00
  0.830157097931E+00  0.855857887384E+00  0.881158698556E+00  0.905972095555E+00  0.930207899838E+00
  0.953770370631E+00  0.976555772361E+00  0.998452242613E+00  0.101934293395E+01  0.103911116790E+01
  0.105764504615E+01  0.107484004571E+01  0.109059993934E+01  0.110483705848E+01  0.111747259288E+01
  0.112843715141E+01  0.113767153150E+01  0.114512754499E+01  0.115076874291E+01  0.115457092527E+01
  0.115652237994E+01  0.115662384115E+01  0.115488819338E+01  0.115133995832E+01  0.114601460915E+01
  0.113895775267E+01  0.113022421972E+01  0.111987709400E+01  0.110798671153E+01  0.109462965191E+01
  0.107988774319E+01  0.106384709433E+01  0.104659716493E+01  0.102822988117E+01  0.100883879791E+01
  0.988518308737E+00  0.967362902924E+00  0.945466467586E+00  0.922921634793E+00  0.899819178070E+00
  0.876247456327E+00  0.852291922716E+00  0.828034694817E+00  0.803554199200E+00  0.778924890227E+00
  0.754217040918E+00  0.729496595600E+00  0.704825069580E+00  0.680259477543E+00  0.655852275794E+00
  0.631651310843E+00  0.607699780320E+00  0.584036226209E+00  0.560694589344E+00  0.537704355805E+00
  0.515090815463E+00  0.492875433040E+00  0.471076315003E+00  0.449708737140E+00  0.428785690246E+00
  0.408318411244E+00  0.388316866111E+00  0.368790170738E+00  0.349746942670E+00  0.331195580100E+00
  0.313144471982E+00  0.295602137988E+00  0.278577297369E+00  0.262078862236E+00  0.246115851564E+00
  0.230697222644E+00  0.215831623729E+00  0.201527078663E+00  0.187790624336E+00  0.174627929995E+00
  0.162042932861E+00  0.150037524512E+00  0.138611319035E+00  0.127761523384E+00  0.117482918033E+00
  0.107767948565E+00  0.986069132535E-01  0.899882255529E-01  0.818987241811E-01  0.743240007730E-01
  0.672487153355E-01  0.606568730984E-01  0.545320426102E-01  0.488575036082E-01  0.436163232667E-01
 pseudo wavefunction
  0.453773342112E-12  0.499495119201E-12  0.549823779731E-12  0.605223508963E-12  0.666205263027E-12
  0.733331481515E-12  0.807221274905E-12  0.888556134667E-12  0.978086218711E-12  0.107663727015E-11
  0.118511823322E-11  0.130452963648E-11  0.143597282087E-11  0.158066009735E-11  0.173992592823E-11
  0.191523923497E-11  0.210821694620E-11  0.232063891075E-11  0.255446431332E-11  0.281184974426E-11
  0.309516908992E-11  0.340703542719E-11  0.375032512415E-11  0.412820436901E-11  0.454415837215E-11
  0.500202351042E-11  0.550602271043E-11  0.606080439688E-11  0.667148536535E-11  0.734369797494E-11
  0.808364209593E-11  0.889814229165E-11  0.979471076203E-11  0.107816166291E-10  0.118679622039E-10
  0.130637669377E-10  0.143800598320E-10  0.158289811603E-10  0.174238944384E-10  0.191795096773E-10
  0.211120190548E-10  0.232392462569E-10  0.255808108674E-10  0.281583093207E-10  0.309955140873E-10
  0.341185929289E-10  0.375563502461E-10  0.413404927432E-10  0.455059218614E-10  0.500910556778E-10
  0.551381832378E-10  0.606938545904E-10  0.668093101222E-10  0.735409531517E-10  0.809508701411E-10
  0.891074033238E-10  0.980857810301E-10  0.107968811523E-09  0.118847646746E-09  0.130822623020E-09
  0.144004186457E-09  0.158513911610E-09  0.174485622760E-09  0.192066628192E-09  0.211419078825E-09
  0.232721463741E-09  0.256170256401E-09  0.281981726733E-09  0.310393935801E-09  0.341668931458E-09
  0.376095165226E-09  0.413990152705E-09  0.455703402031E-09  0.501619637412E-09  0.552162347461E-09
  0.607797691046E-09  0.669038796701E-09  0.736450495233E-09  0.810654529178E-09  0.892335287159E-09
  0.982246116030E-09  0.108121626902E-08  0.119015855396E-08  0.131007775214E-08  0.144207988542E-08
  0.158738241712E-08  0.174732548069E-08  0.192338423976E-08  0.211718249364E-08  0.233050765358E-08
  0.256532722808E-08  0.282380696922E-08  0.310833084738E-08  0.342152303852E-08  0.376627212692E-08
  0.414575774651E-08  0.456347990652E-08  0.502329127187E-08  0.552943269615E-08  0.608657233471E-08
  0.669984869873E-08  0.737491804731E-08  0.811800655462E-08  0.893596773324E-08  0.983634564336E-08
  0.108274444706E-07  0.119184051145E-07  0.131192894933E-07  0.144411733437E-07  0.158962483699E-07
  0.174979346853E-07  0.192610045834E-07  0.212017187785E-07  0.233379763746E-07  0.256894799429E-07
  0.282779172332E-07  0.311271611918E-07  0.342634901336E-07  0.377158300960E-07  0.415160216116E-07
  0.456991133584E-07  0.503036853965E-07  0.553722049712E-07  0.609514181636E-07  0.670927810006E-07
  0.738529339996E-07  0.812942245233E-07  0.894852817610E-07  0.985016496392E-07  0.108426483496E-06
  0.119351316943E-06  0.131376905987E-06  0.144614158195E-06  0.159185155458E-06  0.175224279809E-06
  0.192879452638E-06  0.212313498767E-06  0.233705647929E-06  0.257253187512E-06  0.283173281790E-06
  0.311704974429E-06  0.343111392698E-06  0.377682173735E-06  0.415736135203E-06  0.457624214965E-06
  0.503732706868E-06  0.554486822451E-06  0.610354611401E-06  0.671851276887E-06  0.739543925527E-06
  0.814056795747E-06  0.896077012720E-06  0.986360922872E-06  0.108574106633E-05  0.119513385149E-05
  0.131554800250E-05  0.144809385724E-05  0.159399360163E-05  0.175459253440E-05  0.193137146599E-05
  0.212596036574E-05  0.234015338304E-05  0.257592538049E-05  0.283545013145E-05  0.312112034911E-05
  0.343556973149E-05  0.378169722502E-05  0.416269372983E-05  0.458207149217E-05  0.504369645418E-05
  0.555182385814E-05  0.611113743235E-05  0.672679251847E-05  0.740446353622E-05  0.815039622113E-05
  0.897146511465E-05  0.987523683377E-05  0.108700397004E-04  0.119650403687E-04  0.131703281518E-04
  0.144970078211E-04  0.159573017267E-04  0.175646621728E-04  0.193338950770E-04  0.212812960418E-04
  0.234248000820E-04  0.257841463733E-04  0.283810595260E-04  0.312394490346E-04  0.343856287189E-04
  0.378485581544E-04  0.416601082851E-04  0.458553536312E-04  0.504728937413E-04  0.555552068031E-04
  0.611490386112E-04  0.673058304083E-04  0.740821894610E-04  0.815404066121E-04  0.897490254658E-04
  0.987834683201E-04  0.108726724458E-03  0.119670106963E-03  0.131714084809E-03  0.144969197656E-03
  0.159557061474E-03  0.175611473919E-03  0.193279629248E-03  0.212723453472E-03  0.234121071518E-03
  0.257668419231E-03  0.283581014319E-03  0.312095901645E-03  0.343473789729E-03  0.378001396899E-03
  0.415994027245E-03  0.457798398394E-03  0.503795745155E-03  0.554405225262E-03  0.610087655834E-03
  0.671349611724E-03  0.738747919737E-03  0.812894585645E-03  0.894462194180E-03  0.984189825641E-03
  0.108288953647E-02  0.119145345505E-02  0.131086154841E-02  0.144219011966E-02  0.158662110120E-02
  0.174545221342E-02  0.192010806401E-02  0.211215226874E-02  0.232330067986E-02  0.255543581473E-02
  0.281062258302E-02  0.309112541706E-02  0.339942691611E-02  0.373824812143E-02  0.411057054463E-02
  0.451966007766E-02  0.496909291713E-02  0.546278364037E-02  0.600501557310E-02  0.660047359066E-02
  0.725427949415E-02  0.797203010077E-02  0.875983818183E-02  0.962437637356E-02  0.105729241722E-01
  0.116134181071E-01  0.127545051597E-01  0.140055994665E-01  0.153769422997E-01  0.168796652705E-01
  0.185258566359E-01  0.203286305077E-01  0.223021986736E-01  0.244619446184E-01  0.268244992021E-01
  0.294078172845E-01  0.322312543966E-01  0.353156423319E-01  0.386833622693E-01  0.423584137367E-01
  0.463664773719E-01  0.507349690418E-01  0.554930824246E-01  0.606718166488E-01  0.663039850126E-01
  0.724242001713E-01  0.790688304849E-01  0.862759214627E-01  0.940850754313E-01  0.102537281701E+00
  0.111674688622E+00  0.121540308040E+00  0.132177641796E+00  0.143630219129E+00  0.155941033167E+00
  0.169151864239E+00  0.183302477526E+00  0.198429682822E+00  0.214566244890E+00  0.231739634360E+00
  0.249970611465E+00  0.269271638326E+00  0.289645120354E+00  0.311081483755E+00  0.333557104572E+00
  0.357032115293E+00  0.381448128293E+00  0.406725931320E+00  0.432763229202E+00  0.459432527919E+00
  0.486579281970E+00  0.514020453218E+00  0.541543658144E+00  0.568907109428E+00  0.595840584853E+00
  0.622047678833E+00  0.647209605505E+00  0.670990822121E+00  0.693046721183E+00  0.713033591548E+00
  0.730620963816E+00  0.745506323909E+00  0.757431990800E+00  0.766203700870E+00  0.771710115569E+00
  0.773942069272E+00  0.773009906575E+00  0.769156740840E+00  0.762764933625E+00  0.754352604305E+00
  0.744556615011E+00  0.734098353157E+00  0.723728900666E+00  0.714151013200E+00  0.705916930547E+00
  0.699310289725E+00  0.694430276821E+00  0.691417625372E+00  0.690428540275E+00  0.000000000000E+00
  0.000000000000E+00  0.000000000000E+00  0.000000000000E+00  0.000000000000E+00  0.000000000000E+00
  0.000000000000E+00  0.000000000000E+00  0.000000000000E+00  0.000000000000E+00  0.000000000000E+00
  0.000000000000E+00  0.000000000000E+00  0.000000000000E+00  0.000000000000E+00  0.000000000000E+00
  0.000000000000E+00  0.000000000000E+00  0.000000000000E+00  0.000000000000E+00  0.000000000000E+00
  0.000000000000E+00  0.000000000000E+00  0.000000000000E+00  0.000000000000E+00  0.000000000000E+00
  0.000000000000E+00  0.000000000000E+00  0.000000000000E+00  0.000000000000E+00  0.000000000000E+00
 ae wavefunction
  0.221823665838E-09  0.242856528401E-09  0.265674467098E-09  0.290446038694E-09  0.317354447144E-09
  0.346598933550E-09  0.378396288584E-09  0.412982503210E-09  0.450614566887E-09  0.491572430238E-09
  0.536161146264E-09  0.584713207196E-09  0.637591098886E-09  0.695190085474E-09  0.757941257140E-09
  0.826314855890E-09  0.900823912820E-09  0.982028221858E-09  0.107053868507E-08  0.116702206416E-08
  0.127220617445E-08  0.138688556759E-08  0.151192774606E-08  0.164827996143E-08  0.179697665319E-08
  0.195914758731E-08  0.213602676237E-08  0.232896215718E-08  0.253942639977E-08  0.276902844558E-08
  0.301952636300E-08  0.329284133143E-08  0.359107296841E-08  0.391651611421E-08  0.427167921370E-08
  0.465930444941E-08  0.508238979430E-08  0.554421317081E-08  0.604835891680E-08  0.659874678491E-08
  0.719966371726E-08  0.785579866601E-08  0.857228075391E-08  0.935472109905E-08  0.102092586591E-07
  0.111426104851E-07  0.121621268135E-07  0.132758514666E-07  0.144925880770E-07  0.158219727039E-07
  0.172745534635E-07  0.188618778556E-07  0.205965885379E-07  0.224925283727E-07  0.245648556469E-07
  0.268301704631E-07  0.293066533896E-07  0.320142175676E-07  0.349746755925E-07  0.382119226080E-07
  0.417521372088E-07  0.456240018810E-07  0.498589449034E-07  0.544914058021E-07  0.595591266716E-07
  0.651034718825E-07  0.711697789737E-07  0.778077437646E-07  0.850718430525E-07  0.930217985734E-07
  0.101723086262E-06  0.111247495260E-06  0.121673741541E-06  0.133088141503E-06  0.145585351387E-06
  0.159269179022E-06  0.174253474914E-06  0.190663110499E-06  0.208635052061E-06  0.228319539710E-06
  0.249881381719E-06  0.273501375415E-06  0.299377867174E-06  0.327728464913E-06  0.358791918262E-06
  0.392830182458E-06  0.430130684308E-06  0.471008809652E-06  0.515810634032E-06  0.564915920491E-06
  0.618741410221E-06  0.677744434929E-06  0.742426882097E-06  0.813339547562E-06  0.891086913057E-06
  0.976332390190E-06  0.106980407600E-05  0.117230106997E-05  0.128470040689E-05  0.140796466526E-05
  0.154315031684E-05  0.169141688897E-05  0.185403701833E-05  0.203240748229E-05  0.222806130224E-05
  0.244268102224E-05  0.267811327628E-05  0.293638476805E-05  0.321971979915E-05  0.353055949419E-05
  0.387158288559E-05  0.424573003611E-05  0.465622739390E-05  0.510661559329E-05  0.560077993432E-05
  0.614298379621E-05  0.673790526315E-05  0.739067726789E-05  0.810693158501E-05  0.889284703907E-05
  0.975520232456E-05  0.107014338716E-04  0.117396992321E-04  0.128789465039E-04  0.141289903567E-04
  0.155005952777E-04  0.170055667069E-04  0.186568507975E-04  0.204686435971E-04  0.224565105231E-04
  0.246375170781E-04  0.270303718394E-04  0.296555828455E-04  0.325356286025E-04  0.356951450416E-04
  0.391611298716E-04  0.429631659014E-04  0.471336650358E-04  0.517081348023E-04  0.567254694178E-04
  0.622282675794E-04  0.682631793443E-04  0.748812846641E-04  0.821385063484E-04  0.900960604655E-04
  0.988209474290E-04  0.108386487286E-03  0.118872903003E-03  0.130367955850E-03  0.142967637298E-03
  0.156776922209E-03  0.171910588432E-03  0.188494108354E-03  0.206664618325E-03  0.226571972349E-03
  0.248379886894E-03  0.272267184154E-03  0.298429141635E-03  0.327078956482E-03  0.358449333525E-03
  0.392794206666E-03  0.430390603802E-03  0.471540666198E-03  0.516573833868E-03  0.565849209239E-03
  0.619758112114E-03  0.678726839680E-03  0.743219646075E-03  0.813741956817E-03  0.890843834150E-03
  0.975123710163E-03  0.106723240531E-02  0.116787745070E-02  0.127782773325E-02  0.139791848356E-02
  0.152905662687E-02  0.167222651819E-02  0.182849608312E-02  0.199902338624E-02  0.218506364930E-02
  0.238797674150E-02  0.260923516429E-02  0.285043255250E-02  0.311329271361E-02  0.339967922598E-02
  0.371160561568E-02  0.405124613072E-02  0.442094712900E-02  0.482323909475E-02  0.526084929518E-02
  0.573671508598E-02  0.625399787047E-02  0.681609771287E-02  0.742666860082E-02  0.808963434655E-02
  0.880920510924E-02  0.958989451346E-02  0.104365373301E-01  0.113543076765E-01  0.123487376814E-01
  0.134257365501E-01  0.145916099494E-01  0.158530796215E-01  0.172173031180E-01  0.186918935297E-01
  0.202849390734E-01  0.220050223742E-01  0.238612392701E-01  0.258632169410E-01  0.280211311509E-01
  0.303457223699E-01  0.328483105230E-01  0.355408080895E-01  0.384357312443E-01  0.415462086908E-01
  0.448859877712E-01  0.484694373506E-01  0.523115468629E-01  0.564279207599E-01  0.608347674781E-01
  0.655488819380E-01  0.705876205739E-01  0.759688679959E-01  0.817109946223E-01  0.878328049426E-01
  0.943534764467E-01  0.101292489566E+00  0.108669549146E+00  0.116504497914E+00  0.124817222060E+00
  0.133627548533E+00  0.142955133125E+00  0.152819338175E+00  0.163239098843E+00  0.174232777270E+00
  0.185818004387E+00  0.198011509448E+00  0.210828937514E+00  0.224284655172E+00  0.238391544834E+00
  0.253160788062E+00  0.268601638565E+00  0.284721185847E+00  0.301524110792E+00  0.319012434951E+00
  0.337185265739E+00  0.356038540258E+00  0.375564771007E+00  0.395752797218E+00  0.416587546109E+00
  0.438049808732E+00  0.460116035370E+00  0.482758155562E+00  0.505943427677E+00  0.529634322524E+00
  0.553788444943E+00  0.578358496777E+00  0.603292284554E+00  0.628532776580E+00  0.654018217430E+00
  0.679682314782E+00  0.705454523258E+00  0.731260461087E+00  0.757022499428E+00  0.782660544844E+00
  0.808092965117E+00  0.833237466130E+00  0.858011528933E+00  0.882331896970E+00  0.906112779329E+00
  0.929263110379E+00  0.951684183820E+00  0.973269525689E+00  0.993907957169E+00  0.101348862103E+01
  0.103190548315E+01  0.104905987201E+01  0.106486138725E+01  0.107922816767E+01  0.109208719634E+01
  0.110337486197E+01  0.111303772641E+01  0.112103335030E+01  0.112733102350E+01  0.113191228947E+01
  0.113477120872E+01  0.113591435245E+01  0.113536055102E+01  0.113314043444E+01  0.112929580803E+01
  0.112387890298E+01  0.111695154168E+01  0.110858424754E+01  0.109885533120E+01  0.108784997439E+01
  0.107565933347E+01  0.106237967695E+01  0.104811156748E+01  0.103295909774E+01  0.101702918142E+01
  0.100043090187E+01  0.983274918642E+00  0.965672931253E+00  0.947737201202E+00  0.929580138117E+00
  0.911313949521E+00  0.893050373964E+00  0.874900496253E+00  0.856974661155E+00  0.839382489210E+00
  0.822232996856E+00  0.805634815106E+00  0.789696496475E+00  0.774526895831E+00  0.760235614018E+00
  0.746933500850E+00  0.734733229550E+00  0.723749972974E+00  0.714102227327E+00  0.705912839197E+00
  0.699310289725E+00  0.694430276821E+00  0.691417625372E+00  0.690428540275E+00  0.000000000000E+00
  0.000000000000E+00  0.000000000000E+00  0.000000000000E+00  0.000000000000E+00  0.000000000000E+00
  0.000000000000E+00  0.000000000000E+00  0.000000000000E+00  0.000000000000E+00  0.000000000000E+00
  0.000000000000E+00  0.000000000000E+00  0.000000000000E+00  0.000000000000E+00  0.000000000000E+00
  0.000000000000E+00  0.000000000000E+00  0.000000000000E+00  0.000000000000E+00  0.000000000000E+00
  0.000000000000E+00  0.000000000000E+00  0.000000000000E+00  0.000000000000E+00  0.000000000000E+00
  0.000000000000E+00  0.000000000000E+00  0.000000000000E+00  0.000000000000E+00  0.000000000000E+00
 pseudo wavefunction
  0.190807983192E-04  0.197012582836E-04  0.203418940585E-04  0.210033617111E-04  0.216863386420E-04
  0.223915242795E-04  0.231196407952E-04  0.238714338442E-04  0.246476733283E-04  0.254491541847E-04
  0.262766972000E-04  0.271311498505E-04  0.280133871707E-04  0.289243126487E-04  0.298648591519E-04
  0.308359898825E-04  0.318386993631E-04  0.328740144563E-04  0.339429954152E-04  0.350467369702E-04
  0.361863694491E-04  0.373630599357E-04  0.385780134639E-04  0.398324742529E-04  0.411277269804E-04
  0.424650980988E-04  0.438459571935E-04  0.452717183854E-04  0.467438417790E-04  0.482638349581E-04
  0.498332545290E-04  0.514537077154E-04  0.531268540037E-04  0.548544068429E-04  0.566381353989E-04
  0.584798663669E-04  0.603814858414E-04  0.623449412483E-04  0.643722433389E-04  0.664654682495E-04
  0.686267596269E-04  0.708583308244E-04  0.731624671680E-04  0.755415282971E-04  0.779979505806E-04
  0.805342496127E-04  0.831530227881E-04  0.858569519631E-04  0.886488062011E-04  0.915314446091E-04
  0.945078192653E-04  0.975809782426E-04  0.100754068730E-03  0.104030340255E-03  0.107413148014E-03
  0.110905956304E-03  0.114512342074E-03  0.118235998589E-03  0.122080739207E-03  0.126050501289E-03
  0.130149350232E-03  0.134381483627E-03  0.138751235565E-03  0.143263081069E-03  0.147921640680E-03
  0.152731685190E-03  0.157698140528E-03  0.162826092799E-03  0.168120793503E-03  0.173587664904E-03
  0.179232305587E-03  0.185060496192E-03  0.191078205334E-03  0.197291595716E-03  0.203707030438E-03
  0.210331079517E-03  0.217170526613E-03  0.224232375982E-03  0.231523859640E-03  0.239052444780E-03
  0.246825841413E-03  0.254852010267E-03  0.263139170941E-03  0.271695810320E-03  0.280530691272E-03
  0.289652861621E-03  0.299071663412E-03  0.308796742484E-03  0.318838058344E-03  0.329205894373E-03
  0.339910868355E-03  0.350963943358E-03  0.362376438955E-03  0.374160042828E-03  0.386326822731E-03
  0.398889238859E-03  0.411860156606E-03  0.425252859747E-03  0.439081064043E-03  0.453358931296E-03
  0.468101083850E-03  0.483322619576E-03  0.499039127339E-03  0.515266702966E-03  0.532021965736E-03
  0.549322075411E-03  0.567184749816E-03  0.585628282989E-03  0.604671563933E-03  0.624334095963E-03
  0.644636016699E-03  0.665598118698E-03  0.687241870762E-03  0.709589439942E-03  0.732663714256E-03
  0.756488326150E-03  0.781087676720E-03  0.806486960723E-03  0.832712192410E-03  0.859790232192E-03
  0.887748814181E-03  0.916616574628E-03  0.946423081287E-03  0.977198863737E-03  0.100897544470E-02
  0.104178537236E-02  0.107566225377E-02  0.111064078933E-02  0.114675680837E-02  0.118404730596E-02
  0.122255048082E-02  0.126230577459E-02  0.130335391231E-02  0.134573694419E-02  0.138949828887E-02
  0.143468277797E-02  0.148133670216E-02  0.152950785873E-02  0.157924560075E-02  0.163060088776E-02
  0.168362633819E-02  0.173837628354E-02  0.179490682420E-02  0.185327588726E-02  0.191354328613E-02
  0.197577078214E-02  0.204002214819E-02  0.210636323450E-02  0.217486203647E-02  0.224558876491E-02
  0.231861591845E-02  0.239401835842E-02  0.247187338626E-02  0.255226082337E-02  0.263526309376E-02
  0.272096530935E-02  0.280945535816E-02  0.290082399541E-02  0.299516493776E-02  0.309257496054E-02
  0.319315399845E-02  0.329700524948E-02  0.340423528244E-02  0.351495414805E-02  0.362927549389E-02
  0.374731668313E-02  0.386919891744E-02  0.399504736398E-02  0.412499128684E-02  0.425916418295E-02
  0.439770392269E-02  0.454075289534E-02  0.468845815968E-02  0.484097159975E-02  0.499845008614E-02
  0.516105564291E-02  0.532895562045E-02  0.550232287454E-02  0.568133595169E-02  0.586617928130E-02
  0.605704337465E-02  0.625412503123E-02  0.645762755261E-02  0.666776096416E-02  0.688474224509E-02
  0.710879556708E-02  0.734015254192E-02  0.757905247862E-02  0.782574265035E-02  0.808047857179E-02
  0.834352428731E-02  0.861515267057E-02  0.889564573607E-02  0.918529496331E-02  0.948440163416E-02
  0.979327718425E-02  0.101122435689E-01  0.104416336449E-01  0.107817915680E-01  0.111330732083E-01
  0.114958465840E-01  0.118704923137E-01  0.122574040902E-01  0.126569891752E-01  0.130696689179E-01
  0.134958792974E-01  0.139360714919E-01  0.143907124751E-01  0.148602856426E-01  0.153452914697E-01
  0.158462482032E-01  0.163636925891E-01  0.168981806388E-01  0.174502884368E-01  0.180206129925E-01
  0.186097731398E-01  0.192184104869E-01  0.198471904222E-01  0.204968031775E-01  0.211679649557E-01
  0.218614191265E-01  0.225779374948E-01  0.233183216498E-01  0.240834043980E-01  0.248740512899E-01
  0.256911622454E-01  0.265356732875E-01  0.274085583923E-01  0.283108314649E-01  0.292435484519E-01
  0.302078096015E-01  0.312047618827E-01  0.322356015789E-01  0.333015770676E-01  0.344039918037E-01
  0.355442075232E-01  0.367236476850E-01  0.379438011703E-01  0.392062262632E-01  0.405125549331E-01
  0.418644974459E-01  0.432638473303E-01  0.447124867285E-01  0.462123921632E-01  0.477656407534E-01
  0.493744169171E-01  0.510410195967E-01  0.527678700520E-01  0.545575202615E-01  0.564126619803E-01
  0.583361365035E-01  0.603309451869E-01  0.624002607804E-01  0.645474396290E-01  0.667760348028E-01
  0.690898102147E-01  0.714927557896E-01  0.739891037460E-01  0.765833460541E-01  0.792802531306E-01
  0.820848938301E-01  0.850026567864E-01  0.880392731536E-01  0.912008407874E-01  0.944938498942E-01
  0.979252101636E-01  0.101502279379E+00  0.105232893480E+00  0.109125398013E+00  0.113188680881E+00
  0.117432206258E+00  0.121866049463E+00  0.126500932546E+00  0.131348260258E+00  0.136420155962E+00
  0.141729496975E+00  0.147289948667E+00  0.153115996511E+00  0.159222975124E+00  0.165627093094E+00
  0.172345452221E+00  0.179396059487E+00  0.186797829808E+00  0.194570577266E+00  0.202734992173E+00
  0.211312600863E+00  0.220325704681E+00  0.229797294133E+00  0.239750933600E+00  0.250210611451E+00
  0.261200549814E+00  0.272744967578E+00  0.284867789654E+00  0.297592294880E+00  0.310940694423E+00
  0.324933632123E+00  0.339589597891E+00  0.354924245221E+00  0.370949604112E+00  0.387673181277E+00
  0.405096940707E+00  0.423216159394E+00  0.442018155686E+00  0.461480891333E+00  0.481571453128E+00
  0.502244426310E+00  0.523440179824E+00  0.545083093325E+00  0.567079767730E+00  0.589317275213E+00
  0.611661520987E+00  0.633955807829E+00  0.656019714932E+00  0.677648424685E+00  0.698612653555E+00
  0.718659365016E+00  0.737513461442E+00  0.754880665598E+00  0.770451807154E+00  0.783908721487E+00
  0.794933272921E+00  0.803367086212E+00  0.809188333939E+00  0.812398601534E+00  0.813012678947E+00
  0.811059049318E+00  0.806580367499E+00  0.799633877790E+00  0.790291728115E+00  0.778641138213E+00
  0.764784397411E+00  0.748838655411E+00  0.730935471790E+00  0.711220081287E+00  0.689850334242E+00
  0.666995273745E+00  0.642833333510E+00  0.617550167746E+00  0.591336165414E+00  0.564383740720E+00
  0.536884530348E+00  0.509026643753E+00  0.480992116427E+00  0.452954697994E+00  0.425078069356E+00
  0.397514541517E+00  0.370404240392E+00  0.343874737831E+00  0.318041051931E+00  0.293005912850E+00
  0.268860176386E+00  0.245683268387E+00  0.223543559489E+00  0.202498600628E+00  0.182595191158E+00
 ae wavefunction
 -0.843277667696E-03 -0.870170370614E-03 -0.897918630346E-03 -0.926549531207E-03 -0.956091006422E-03
 -0.986571864147E-03 -0.101802181435E-02 -0.105047149637E-02 -0.108395250734E-02 -0.111849743144E-02
 -0.115413986992E-02 -0.119091447212E-02 -0.122885696715E-02 -0.126800419678E-02 -0.130839414892E-02
 -0.135006599237E-02 -0.139306011224E-02 -0.143741814663E-02 -0.148318302413E-02 -0.153039900241E-02
 -0.157911170796E-02 -0.162936817676E-02 -0.168121689617E-02 -0.173470784792E-02 -0.178989255218E-02
 -0.184682411293E-02 -0.190555726443E-02 -0.196614841892E-02 -0.202865571559E-02 -0.209313907079E-02
 -0.215966022954E-02 -0.222828281831E-02 -0.229907239917E-02 -0.237209652523E-02 -0.244742479748E-02
 -0.252512892298E-02 -0.260528277448E-02 -0.268796245138E-02 -0.277324634220E-02 -0.286121518841E-02
 -0.295195214970E-02 -0.304554287079E-02 -0.314207554956E-02 -0.324164100675E-02 -0.334433275707E-02
 -0.345024708174E-02 -0.355948310256E-02 -0.367214285733E-02 -0.378833137672E-02 -0.390815676263E-02
 -0.403173026783E-02 -0.415916637699E-02 -0.429058288910E-02 -0.442610100112E-02 -0.456584539288E-02
 -0.470994431321E-02 -0.485852966721E-02 -0.501173710454E-02 -0.516970610881E-02 -0.533258008778E-02
 -0.550050646447E-02 -0.567363676893E-02 -0.585212673071E-02 -0.603613637171E-02 -0.622583009941E-02
 -0.642137680036E-02 -0.662294993360E-02 -0.683072762396E-02 -0.704489275503E-02 -0.726563306150E-02
 -0.749314122071E-02 -0.772761494319E-02 -0.796925706169E-02 -0.821827561873E-02 -0.847488395206E-02
 -0.873930077779E-02 -0.901175027086E-02 -0.929246214223E-02 -0.958167171269E-02 -0.987961998238E-02
 -0.101865536959E-01 -0.105027254023E-01 -0.108283935089E-01 -0.111638223297E-01 -0.115092821254E-01
 -0.118650491369E-01 -0.122314056095E-01 -0.126086398076E-01 -0.129970460197E-01 -0.133969245512E-01
 -0.138085817062E-01 -0.142323297543E-01 -0.146684868841E-01 -0.151173771406E-01 -0.155793303448E-01
 -0.160546819959E-01 -0.165437731525E-01 -0.170469502928E-01 -0.175645651513E-01 -0.180969745304E-01
 -0.186445400852E-01 -0.192076280791E-01 -0.197866091089E-01 -0.203818577959E-01 -0.209937524417E-01
 -0.216226746460E-01 -0.222690088832E-01 -0.229331420358E-01 -0.236154628812E-01 -0.243163615288E-01
 -0.250362288046E-01 -0.257754555794E-01 -0.265344320375E-01 -0.273135468813E-01 -0.281131864696E-01
 -0.289337338833E-01 -0.297755679161E-01 -0.306390619849E-01 -0.315245829548E-01 -0.324324898757E-01
 -0.333631326225E-01 -0.343168504370E-01 -0.352939703636E-01 -0.362948055744E-01 -0.373196535776E-01
 -0.383687943039E-01 -0.394424880631E-01 -0.405409733676E-01 -0.416644646127E-01 -0.428131496107E-01
 -0.439871869701E-01 -0.451867033135E-01 -0.464117903281E-01 -0.476625016415E-01 -0.489388495165E-01
 -0.502408013570E-01 -0.515682760199E-01 -0.529211399258E-01 -0.542992029619E-01 -0.557022141712E-01
 -0.571298572227E-01 -0.585817456566E-01 -0.600574179004E-01 -0.615563320507E-01 -0.630778604179E-01
 -0.646212838308E-01 -0.661857856984E-01 -0.677704458299E-01 -0.693742340113E-01 -0.709960033416E-01
 -0.726344833313E-01 -0.742882727686E-01 -0.759558323601E-01 -0.776354771547E-01 -0.793253687631E-01
 -0.810235073860E-01 -0.827277236686E-01 -0.844356704012E-01 -0.861448140905E-01 -0.878524264277E-01
 -0.895555756858E-01 -0.912511180823E-01 -0.929356891475E-01 -0.946056951450E-01 -0.962573045968E-01
 -0.978864399685E-01 -0.994887695809E-01 -0.101059699818E+00 -0.102594367711E+00 -0.104087633978E+00
 -0.105534076625E+00 -0.106927985195E+00 -0.108263355794E+00 -0.109533886995E+00 -0.110732976766E+00
 -0.111853720553E+00 -0.112888910668E+00 -0.113831037145E+00 -0.114672290231E+00 -0.115404564691E+00
 -0.116019466123E+00 -0.116508319477E+00 -0.116862179995E+00 -0.117071846778E+00 -0.117127879225E+00
 -0.117020616566E+00 -0.116740200735E+00 -0.116276602826E+00 -0.115619653392E+00 -0.114759076820E+00
 -0.113684530049E+00 -0.112385645876E+00 -0.110852081072E+00 -0.109073569568E+00 -0.107039980902E+00
 -0.104741384136E+00 -0.102168117426E+00 -0.993108633748E-01 -0.961607303022E-01 -0.927093394948E-01
 -0.889489184702E-01 -0.848724002316E-01 -0.804735284309E-01 -0.757469682887E-01 -0.706884230471E-01
 -0.652947556444E-01 -0.595641152082E-01 -0.534960678607E-01 -0.470917312130E-01 -0.403539118030E-01
 -0.332872445882E-01 -0.258983334636E-01 -0.181958916126E-01 -0.101908803491E-01 -0.189664496454E-02
  0.667095402367E-02  0.154934158869E-01  0.245494826393E-01  0.338150315461E-01  0.432629787233E-01
  0.528631953149E-01  0.625824378175E-01  0.723842944153E-01  0.822291497176E-01  0.920741710064E-01
  0.101873319853E+00  0.111577393574E+00  0.121134101258E+00  0.130488178868E+00  0.139581547153E+00
  0.148353514980E+00  0.156741029492E+00  0.164678973742E+00  0.172100512089E+00  0.178937483650E+00
  0.185120844091E+00  0.190581155795E+00  0.195249125923E+00  0.199056191194E+00  0.201935147406E+00
  0.203820821028E+00  0.204650779398E+00  0.204366075423E+00  0.202912021857E+00  0.200238989526E+00
  0.196303222953E+00  0.191067665970E+00  0.184502788903E+00  0.176587407878E+00  0.167309485779E+00
  0.156666903277E+00  0.144668187312E+00  0.131333183523E+00  0.116693658277E+00  0.100793815520E+00
  0.836907135001E-01  0.654545668051E-01  0.461689199207E-01  0.259306797480E-01  0.484999566908E-02
 -0.169500235206E-01 -0.393337670593E-01 -0.621537673556E-01 -0.852515488633E-01 -0.108458696143E+00
 -0.131598143765E+00 -0.154485653418E+00 -0.176931375725E+00 -0.198741322067E+00 -0.219718566455E+00
 -0.239664154372E+00 -0.258378014909E+00 -0.275660450995E+00 -0.291314637738E+00 -0.305149909473E+00
 -0.316985087666E+00 -0.326651279735E+00 -0.333994108626E+00 -0.338875601111E+00 -0.341175915231E+00
 -0.340794957374E+00 -0.337653851369E+00 -0.331696187277E+00 -0.322888977579E+00 -0.311223268931E+00
 -0.296714385205E+00 -0.279401801963E+00 -0.259348671558E+00 -0.236641028373E+00 -0.211386710208E+00
 -0.183714033797E+00 -0.153770263929E+00 -0.121719913502E+00 -0.877429117592E-01 -0.520326744203E-01
 -0.147941077572E-01  0.237584245809E-01  0.634031456400E-01  0.103912895942E+00  0.145057128801E+00
  0.186603849180E+00  0.228321476360E+00  0.269980611750E+00  0.311355694730E+00  0.352226532640E+00
  0.392379692271E+00  0.431609749861E+00  0.469720395206E+00  0.506525395996E+00  0.541849428391E+00
  0.575528781519E+00  0.607411940083E+00  0.637360044446E+00  0.665247221152E+00  0.690960774784E+00
  0.714401235419E+00  0.735482269496E+00  0.754130483529E+00  0.770285172743E+00  0.783898085068E+00
  0.794933272921E+00  0.803367086212E+00  0.809188333939E+00  0.812398601534E+00  0.813012678947E+00
  0.811059049318E+00  0.806580367499E+00  0.799633877790E+00  0.790291728115E+00  0.778641138213E+00
  0.764784397411E+00  0.748838655411E+00  0.730935471790E+00  0.711220081287E+00  0.689850334242E+00
  0.666995273745E+00  0.642833333510E+00  0.617550167746E+00  0.591336165414E+00  0.564383740720E+00
  0.536884530348E+00  0.509026643753E+00  0.480992116427E+00  0.452954697994E+00  0.425078069356E+00
  0.397514541517E+00  0.370404240392E+00  0.343874737831E+00  0.318041051931E+00  0.293005912850E+00
  0.268860176386E+00  0.245683268387E+00  0.223543559489E+00  0.202498600628E+00  0.182595191158E+00
 pseudo wavefunction
  0.457939280048E-04  0.472830323110E-04  0.488205585753E-04  0.504080813591E-04  0.520472264245E-04
  0.537396723996E-04  0.554871524971E-04  0.572914562894E-04  0.591544315416E-04  0.610779861032E-04
  0.630640898625E-04  0.651147767636E-04  0.672321468893E-04  0.694183686120E-04  0.716756808142E-04
  0.740063951811E-04  0.764128985685E-04  0.788976554465E-04  0.814632104239E-04  0.841121908536E-04
  0.868473095238E-04  0.896713674358E-04  0.925872566723E-04  0.955979633595E-04  0.987065707253E-04
  0.101916262256E-03  0.105230324958E-03  0.108652152721E-03  0.112185249799E-03  0.115833234391E-03
  0.119599842357E-03  0.123488931031E-03  0.127504483185E-03  0.131650611095E-03  0.135931560762E-03
  0.140351716254E-03  0.144915604201E-03  0.149627898426E-03  0.154493424733E-03  0.159517165850E-03
  0.164704266532E-03  0.170060038827E-03  0.175589967521E-03  0.181299715748E-03  0.187195130797E-03
  0.193282250094E-03  0.199567307390E-03  0.206056739140E-03  0.212757191100E-03  0.219675525127E-03
  0.226818826213E-03  0.234194409733E-03  0.241809828945E-03  0.249672882716E-03  0.257791623519E-03
  0.266174365672E-03  0.274829693856E-03  0.283766471904E-03  0.292993851883E-03  0.302521283465E-03
  0.312358523599E-03  0.322515646514E-03  0.333003054025E-03  0.343831486195E-03  0.355012032328E-03
  0.366556142328E-03  0.378475638424E-03  0.390782727281E-03  0.403490012497E-03  0.416610507513E-03
  0.430157648939E-03  0.444145310317E-03  0.458587816329E-03  0.473499957466E-03  0.488897005178E-03
  0.504794727511E-03  0.521209405261E-03  0.538157848642E-03  0.555657414510E-03  0.573726024133E-03
  0.592382181547E-03  0.611644992511E-03  0.631534184071E-03  0.652070124768E-03  0.673273845495E-03
  0.695167061042E-03  0.717772192335E-03  0.741112389399E-03  0.765211555072E-03  0.790094369485E-03
  0.815786315341E-03  0.842313704020E-03  0.869703702525E-03  0.897984361312E-03  0.927184643024E-03
  0.957334452151E-03  0.988464665674E-03  0.102060716469E-02  0.105379486705E-02  0.108806176113E-02
  0.112344294059E-02  0.115997464038E-02  0.119769427381E-02  0.123664047093E-02  0.127685311808E-02
  0.131837339873E-02  0.136124383575E-02  0.140550833490E-02  0.145121222987E-02  0.149840232872E-02
  0.154712696183E-02  0.159743603145E-02  0.164938106283E-02  0.170301525701E-02  0.175839354539E-02
  0.181557264600E-02  0.187461112163E-02  0.193556943989E-02  0.199851003519E-02  0.206349737275E-02
  0.213059801468E-02  0.219988068826E-02  0.227141635639E-02  0.234527829039E-02  0.242154214514E-02
  0.250028603670E-02  0.258159062242E-02  0.266553918371E-02  0.275221771151E-02  0.284171499452E-02
  0.293412271034E-02  0.302953551959E-02  0.312805116307E-02  0.322977056218E-02  0.333479792252E-02
  0.344324084100E-02  0.355521041631E-02  0.367082136319E-02  0.379019213029E-02  0.391344502198E-02
  0.404070632413E-02  0.417210643406E-02  0.430777999467E-02  0.444786603310E-02  0.459250810387E-02
  0.474185443676E-02  0.489605808957E-02  0.505527710591E-02  0.521967467822E-02  0.538941931617E-02
  0.556468502061E-02  0.574565146334E-02  0.593250417277E-02  0.612543472583E-02  0.632464094617E-02
  0.653032710909E-02  0.674270415315E-02  0.696198989901E-02  0.718840927544E-02  0.742219455309E-02
  0.766358558594E-02  0.791283006101E-02  0.817018375641E-02  0.843591080822E-02  0.871028398631E-02
  0.899358497964E-02  0.928610469123E-02  0.958814354323E-02  0.990001179249E-02  0.102220298570E-01
  0.105545286534E-01  0.108978499469E-01  0.112523467120E-01  0.116183835077E-01  0.119963368641E-01
  0.123865956838E-01  0.127895616572E-01  0.132056496922E-01  0.136352883603E-01  0.140789203576E-01
  0.145370029833E-01  0.150100086354E-01  0.154984253250E-01  0.160027572087E-01  0.165235251420E-01
  0.170612672528E-01  0.176165395367E-01  0.181899164751E-01  0.187819916772E-01  0.193933785473E-01
  0.200247109772E-01  0.206766440675E-01  0.213498548768E-01  0.220450432015E-01  0.227629323880E-01
  0.235042701779E-01  0.242698295891E-01  0.250604098342E-01  0.258768372785E-01  0.267199664398E-01
  0.275906810318E-01  0.284898950553E-01  0.294185539384E-01  0.303776357288E-01  0.313681523429E-01
  0.323911508738E-01  0.334477149618E-01  0.345389662335E-01  0.356660658110E-01  0.368302158981E-01
  0.380326614488E-01  0.392746919213E-01  0.405576431267E-01  0.418828991766E-01  0.432518945376E-01
  0.446661162008E-01  0.461271059739E-01  0.476364629049E-01  0.491958458485E-01  0.508069761842E-01
  0.524716406989E-01  0.541916946455E-01  0.559690649927E-01  0.578057538792E-01  0.597038422887E-01
  0.616654939642E-01  0.636929595789E-01  0.657885811853E-01  0.679547969640E-01  0.701941462965E-01
  0.725092751879E-01  0.749029420675E-01  0.773780239980E-01  0.799375233249E-01  0.825845748033E-01
  0.853224532385E-01  0.881545816820E-01  0.910845402273E-01  0.941160754519E-01  0.972531105563E-01
  0.100499756255E+00  0.103860322473E+00  0.107339330920E+00  0.110941528586E+00  0.114671902254E+00
  0.118535694078E+00  0.122538418318E+00  0.126685879297E+00  0.130984190674E+00  0.135439796109E+00
  0.140059491405E+00  0.144850448214E+00  0.149820239396E+00  0.154976866096E+00  0.160328786647E+00
  0.165884947337E+00  0.171654815126E+00  0.177648412352E+00  0.183876353455E+00  0.190349883738E+00
  0.197080920125E+00  0.204082093886E+00  0.211366795199E+00  0.218949219412E+00  0.226844414771E+00
  0.235068331302E+00  0.243637870448E+00  0.252570934929E+00  0.261886478162E+00  0.271604552403E+00
  0.281746354569E+00  0.292334268500E+00  0.303391902085E+00  0.314944117438E+00  0.327017051866E+00
  0.339638127008E+00  0.352836042996E+00  0.366640753955E+00  0.381083420516E+00  0.396196334291E+00
  0.412012808467E+00  0.428567027768E+00  0.445893850014E+00  0.464028550440E+00  0.483006498709E+00
  0.502862757260E+00  0.523631588283E+00  0.545345855142E+00  0.568036302629E+00  0.591730698945E+00
  0.616452820926E+00  0.642221262778E+00  0.669048047557E+00  0.696937020026E+00  0.725881999361E+00
  0.755864670851E+00  0.786852197308E+00  0.818794533791E+00  0.851621433756E+00  0.885239141281E+00
  0.919526773087E+00  0.954332406186E+00  0.989468902715E+00  0.102470952355E+01  0.105978340714E+01
  0.109437102051E+01  0.112809972560E+01  0.116053964721E+01  0.119120007793E+01  0.121952671091E+01
  0.124490005237E+01  0.126663542978E+01  0.128398507712E+01  0.129614284068E+01  0.130225210163E+01
  0.130141754818E+01  0.129272143953E+01  0.127524497416E+01  0.124809529092E+01  0.121043847576E+01
  0.116154751820E+01  0.110102825527E+01  0.102880233899E+01  0.944908262855E+00  0.000000000000E+00
  0.000000000000E+00  0.000000000000E+00  0.000000000000E+00  0.000000000000E+00  0.000000000000E+00
  0.000000000000E+00  0.000000000000E+00  0.000000000000E+00  0.000000000000E+00  0.000000000000E+00
  0.000000000000E+00  0.000000000000E+00  0.000000000000E+00  0.000000000000E+00  0.000000000000E+00
  0.000000000000E+00  0.000000000000E+00  0.000000000000E+00  0.000000000000E+00  0.000000000000E+00
  0.000000000000E+00  0.000000000000E+00  0.000000000000E+00  0.000000000000E+00  0.000000000000E+00
  0.000000000000E+00  0.000000000000E+00  0.000000000000E+00  0.000000000000E+00  0.000000000000E+00
 ae wavefunction
 -0.174341118228E-02 -0.179900975857E-02 -0.185637713199E-02 -0.191556929723E-02 -0.197664400405E-02
 -0.203966081106E-02 -0.210468114129E-02 -0.217176833917E-02 -0.224098772931E-02 -0.231240667691E-02
 -0.238609464997E-02 -0.246212328324E-02 -0.254056644387E-02 -0.262150029930E-02 -0.270500338659E-02
 -0.279115668410E-02 -0.288004368492E-02 -0.297175047250E-02 -0.306636579832E-02 -0.316398116166E-02
 -0.326469089165E-02 -0.336859223149E-02 -0.347578542495E-02 -0.358637380528E-02 -0.370046388641E-02
 -0.381816545658E-02 -0.393959167452E-02 -0.406485916808E-02 -0.419408813541E-02 -0.432740244880E-02
 -0.446492976116E-02 -0.460680161517E-02 -0.475315355515E-02 -0.490412524177E-02 -0.505986056951E-02
 -0.522050778699E-02 -0.538621962017E-02 -0.555715339849E-02 -0.573347118389E-02 -0.591533990284E-02
 -0.610293148134E-02 -0.629642298289E-02 -0.649599674948E-02 -0.670184054565E-02 -0.691414770543E-02
 -0.713311728246E-02 -0.735895420292E-02 -0.759186942164E-02 -0.783208008096E-02 -0.807980967266E-02
 -0.833528820266E-02 -0.859875235861E-02 -0.887044568015E-02 -0.915061873194E-02 -0.943952927914E-02
 -0.973744246553E-02 -0.100446309938E-01 -0.103613753083E-01 -0.106879637795E-01 -0.110246928909E-01
 -0.113718674270E-01 -0.117298006633E-01 -0.120988145572E-01 -0.124792399401E-01 -0.128714167105E-01
 -0.132756940264E-01 -0.136924304992E-01 -0.141219943864E-01 -0.145647637835E-01 -0.150211268153E-01
 -0.154914818249E-01 -0.159762375609E-01 -0.164758133616E-01 -0.169906393357E-01 -0.175211565393E-01
 -0.180678171475E-01 -0.186310846209E-01 -0.192114338651E-01 -0.198093513830E-01 -0.204253354192E-01
 -0.210598960938E-01 -0.217135555267E-01 -0.223868479492E-01 -0.230803198034E-01 -0.237945298254E-01
 -0.245300491142E-01 -0.252874611817E-01 -0.260673619834E-01 -0.268703599281E-01 -0.276970758638E-01
 -0.285481430387E-01 -0.294242070339E-01 -0.303259256665E-01 -0.312539688594E-01 -0.322090184768E-01
 -0.331917681199E-01 -0.342029228827E-01 -0.352431990618E-01 -0.363133238192E-01 -0.374140347928E-01
 -0.385460796506E-01 -0.397102155863E-01 -0.409072087496E-01 -0.421378336082E-01 -0.434028722359E-01
 -0.447031135216E-01 -0.460393522943E-01 -0.474123883579E-01 -0.488230254300E-01 -0.502720699776E-01
 -0.517603299447E-01 -0.532886133626E-01 -0.548577268377E-01 -0.564684739071E-01 -0.581216532557E-01
 -0.598180567846E-01 -0.615584675241E-01 -0.633436573790E-01 -0.651743847010E-01 -0.670513916730E-01
 -0.689754014997E-01 -0.709471153900E-01 -0.729672093234E-01 -0.750363305851E-01 -0.771550940620E-01
 -0.793240782833E-01 -0.815438211970E-01 -0.838148156659E-01 -0.861375046724E-01 -0.885122762174E-01
 -0.909394579002E-01 -0.934193111650E-01 -0.959520252002E-01 -0.985377104777E-01 -0.101176391915E+00
 -0.103868001652E+00 -0.106612371420E+00 -0.109409224497E+00 -0.112258167237E+00 -0.115158680152E+00
 -0.118110108540E+00 -0.121111652655E+00 -0.124162357397E+00 -0.127261101515E+00 -0.130406586329E+00
 -0.133597323941E+00 -0.136831624960E+00 -0.140107585714E+00 -0.143423074965E+00 -0.146775720118E+00
 -0.150162892955E+00 -0.153581694866E+00 -0.157028941634E+00 -0.160501147755E+00 -0.163994510345E+00
 -0.167504892649E+00 -0.171027807185E+00 -0.174558398573E+00 -0.178091426102E+00 -0.181621246069E+00
 -0.185141793985E+00 -0.188646566699E+00 -0.192128604540E+00 -0.195580473563E+00 -0.198994248006E+00
 -0.202361493091E+00 -0.205673248278E+00 -0.208920011143E+00 -0.212091722019E+00 -0.215177749605E+00
 -0.218166877701E+00 -0.221047293320E+00 -0.223806576371E+00 -0.226431691192E+00 -0.228908980176E+00
 -0.231224159803E+00 -0.233362319363E+00 -0.235307922721E+00 -0.237044813465E+00 -0.238556223814E+00
 -0.239824787675E+00 -0.240832558281E+00 -0.241561030812E+00 -0.241991170497E+00 -0.242103446625E+00
 -0.241877872986E+00 -0.241294055217E+00 -0.240331245591E+00 -0.238968405735E+00 -0.237184277825E+00
 -0.234957464769E+00 -0.232266519879E+00 -0.229090046559E+00 -0.225406808453E+00 -0.221195850533E+00
 -0.216436631528E+00 -0.211109168062E+00 -0.205194190813E+00 -0.198673312930E+00 -0.191529210875E+00
 -0.183745817746E+00 -0.175308529049E+00 -0.166204420738E+00 -0.156422479230E+00 -0.145953842917E+00
 -0.134792054557E+00 -0.122933323694E+00 -0.110376798071E+00 -0.971248427493E-01 -0.831833253941E-01
 -0.685619058848E-01 -0.532743281227E-01 -0.373387115689E-01 -0.207778397330E-01 -0.361944252882E-02
  0.141035308178E-01  0.323526517714E-01  0.510837688716E-01  0.702467838610E-01  0.897854507525E-01
  0.109637200936E+00  0.129732997601E+00  0.149997223373E+00  0.170347606144E+00  0.190695189592E+00
  0.210944356422E+00  0.230992913649E+00  0.250732249774E+00  0.270047573258E+00  0.288818240104E+00
  0.306918176009E+00  0.324216396149E+00  0.340577623990E+00  0.355863009874E+00  0.369930950100E+00
  0.382638007220E+00  0.393839931781E+00  0.403392784638E+00  0.411154157552E+00  0.416984488152E+00
  0.420748463846E+00  0.422316507675E+00  0.421566337710E+00  0.418384589957E+00  0.412668493162E+00
  0.404327582060E+00  0.393285433732E+00  0.379481409651E+00  0.362872383797E+00  0.343434435026E+00
  0.321164479544E+00  0.296081817130E+00  0.268229562751E+00  0.237675933510E+00  0.204515359742E+00
  0.168869388757E+00  0.130887350323E+00  0.907467545298E-01  0.486533950551E-01  0.484113310280E-02
 -0.404286613734E-01 -0.868680359052E-01 -0.134163778382E+00 -0.181979171456E+00 -0.229956211949E+00
 -0.277718301659E+00 -0.324873337809E+00 -0.371016990191E+00 -0.415735803238E+00 -0.458609753981E+00
 -0.499214227252E+00 -0.537122034596E+00 -0.571906675447E+00 -0.603147726151E+00 -0.630437887029E+00
 -0.653390128165E+00 -0.671643757024E+00 -0.684869333954E+00 -0.692772913572E+00 -0.695099985309E+00
 -0.691639215289E+00 -0.682225908672E+00 -0.666745040790E+00 -0.645133706656E+00 -0.617382881873E+00
 -0.583538445339E+00 -0.543701464694E+00 -0.498027784347E+00 -0.446726976731E+00 -0.390060730049E+00
 -0.328340749235E+00 -0.261926248873E+00 -0.191221111715E+00 -0.116670784930E+00 -0.387589780818E-01
  0.419957781203E-01  0.125043661022E+00  0.209807128439E+00  0.295684495690E+00  0.382053484151E+00
  0.468274712908E+00  0.553695109910E+00  0.637651223954E+00  0.719472425483E+00  0.798483995070E+00
  0.874010104690E+00  0.945376723547E+00  0.101191447997E+01  0.107296153957E+01  0.112786656309E+01
  0.117599181565E+01  0.121671649665E+01  0.124944035484E+01  0.127358764908E+01  0.128861151673E+01
  0.129399883081E+01  0.128927565898E+01  0.127401348044E+01  0.124783635042E+01  0.121042921161E+01
  0.116154751820E+01  0.110102825527E+01  0.102880233899E+01  0.944908262855E+00  0.000000000000E+00
  0.000000000000E+00  0.000000000000E+00  0.000000000000E+00  0.000000000000E+00  0.000000000000E+00
  0.000000000000E+00  0.000000000000E+00  0.000000000000E+00  0.000000000000E+00  0.000000000000E+00
  0.000000000000E+00  0.000000000000E+00  0.000000000000E+00  0.000000000000E+00  0.000000000000E+00
  0.000000000000E+00  0.000000000000E+00  0.000000000000E+00  0.000000000000E+00  0.000000000000E+00
  0.000000000000E+00  0.000000000000E+00  0.000000000000E+00  0.000000000000E+00  0.000000000000E+00
  0.000000000000E+00  0.000000000000E+00  0.000000000000E+00  0.000000000000E+00  0.000000000000E+00
 End of Dataset
  PAW_PBE F 08Apr2002                    
   7.00000000000000     
 parameters from PSCTR are:
   SHA256 =  53c630871ac675939349fc2b976745ee17808dedc90b5bdde026bc81f0faf456 F/POTCAR
   COPYR  = (c) Copyright 08Apr2002 Georg Kresse
   COPYR  = This file is part of the software VASP. Any use, copying, and all other rights are regulated by the VASP license agreement.
   COPYR  = If you do not have a valid VASP license, you may not use, copy or distribute this file.
   VRHFIN =F: s2p5
   LEXCH  = PE
   EATOM  =   659.6475 eV,   48.4827 Ry

   TITEL  = PAW_PBE F 08Apr2002
   LULTRA =        F    use ultrasoft PP ?
   IUNSCR =        1    unscreen: 0-lin 1-nonlin 2-no
   RPACOR =    1.200    partial core radius
   POMASS =   18.998; ZVAL   =    7.000    mass and valenz
   RCORE  =    1.520    outmost cutoff radius
   RWIGS  =    1.500; RWIGS  =    0.794    wigner-seitz radius (au A)
   ENMAX  =  400.000; ENMIN  =  300.000 eV
   ICORE  =        2    local potential
   LCOR   =        T    correct aug charges
   LPAW   =        T    paw PP
   EAUG   =  613.614
   RMAX   =    1.555    core radius for proj-oper
   RAUG   =    1.300    factor for augmentation sphere
   RDEP   =    1.539    radius for radial grids
   RDEPT  =    1.299    core radius for aug-charge
 
   Atomic configuration
    4 entries
     n  l   j            E        occ.
     1  0  0.50      -663.3661   2.0000
     2  0  0.50       -29.8995   2.0000
     2  1  0.50       -11.1114   5.0000
     3  2  1.50       -10.8847   0.0000
   Description
     l       E           TYP  RCUT    TYP  RCUT
     0    -29.8995018     23  1.200
     0     -9.5240782     23  1.200
     1    -11.1113914     23  1.520
     1      1.3605826     23  1.520
     2    -10.8846608      7  1.500
   Error from kinetic energy argument (eV)
   NDATA  =      100
   STEP   =   20.000   1.050
  215.      212.      211.      207.      206.      202.      199.      197.
  193.      189.      187.      183.      179.      175.      170.      166.
  161.      157.      152.      146.      141.      137.      130.      126.
  121.      115.      108.      104.      98.0      92.1      86.3      80.7
  75.3      70.2      65.2      60.5      54.6      50.3      45.1      41.4
  36.8      32.6      28.7      25.2      22.0      19.1      16.6      13.7
  11.7      9.58      7.75      6.49      5.16      4.05      2.99      2.29
  1.73      1.21     0.832     0.558     0.367     0.236     0.151     0.907E-01
 0.615E-01 0.435E-01 0.353E-01 0.317E-01 0.295E-01 0.276E-01 0.247E-01 0.211E-01
 0.173E-01 0.135E-01 0.997E-02 0.755E-02 0.567E-02 0.452E-02 0.381E-02 0.343E-02
 0.308E-02 0.270E-02 0.227E-02 0.177E-02 0.134E-02 0.102E-02 0.833E-03 0.740E-03
 0.706E-03 0.671E-03 0.599E-03 0.499E-03 0.373E-03 0.276E-03 0.214E-03 0.191E-03
 0.189E-03 0.185E-03 0.165E-03 0.134E-03
END of PSCTR-controll parameters
 local part
   122.832189257630     
  0.25090202E+02  0.25090478E+02  0.25086782E+02  0.25080622E+02  0.25072000E+02
  0.25060915E+02  0.25047367E+02  0.25031354E+02  0.25012870E+02  0.24991910E+02
  0.24968463E+02  0.24942515E+02  0.24914050E+02  0.24883048E+02  0.24849487E+02
  0.24813339E+02  0.24774576E+02  0.24733168E+02  0.24689080E+02  0.24642276E+02
  0.24592717E+02  0.24540362E+02  0.24485165E+02  0.24427080E+02  0.24366054E+02
  0.24302033E+02  0.24234960E+02  0.24164772E+02  0.24091405E+02  0.24014790E+02
  0.23934857E+02  0.23851531E+02  0.23764737E+02  0.23674396E+02  0.23580428E+02
  0.23482751E+02  0.23381282E+02  0.23275937E+02  0.23166632E+02  0.23053282E+02
  0.22935804E+02  0.22814114E+02  0.22688130E+02  0.22557775E+02  0.22422970E+02
  0.22283642E+02  0.22139723E+02  0.21991149E+02  0.21837859E+02  0.21679801E+02
  0.21516929E+02  0.21349202E+02  0.21176589E+02  0.20999068E+02  0.20816623E+02
  0.20629250E+02  0.20436954E+02  0.20239753E+02  0.20037672E+02  0.19830751E+02
  0.19619042E+02  0.19402607E+02  0.19181522E+02  0.18955876E+02  0.18725772E+02
  0.18491324E+02  0.18252660E+02  0.18009923E+02  0.17763266E+02  0.17512858E+02
  0.17258879E+02  0.17001522E+02  0.16740993E+02  0.16477510E+02  0.16211302E+02
  0.15942607E+02  0.15671677E+02  0.15398771E+02  0.15124158E+02  0.14848114E+02
  0.14570924E+02  0.14292879E+02  0.14014274E+02  0.13735411E+02  0.13456594E+02
  0.13178130E+02  0.12900329E+02  0.12623499E+02  0.12347950E+02  0.12073988E+02
  0.11801919E+02  0.11532042E+02  0.11264654E+02  0.11000045E+02  0.10738497E+02
  0.10480285E+02  0.10225675E+02  0.99749224E+01  0.97282726E+01  0.94859588E+01
  0.92482015E+01  0.90152082E+01  0.87871720E+01  0.85642717E+01  0.83466706E+01
  0.81345163E+01  0.79279402E+01  0.77270571E+01  0.75319649E+01  0.73427448E+01
  0.71594605E+01  0.69821585E+01  0.68108684E+01  0.66456025E+01  0.64863563E+01
  0.63331086E+01  0.61858221E+01  0.60444435E+01  0.59089040E+01  0.57791201E+01
  0.56549941E+01  0.55364146E+01  0.54232573E+01  0.53153860E+01  0.52126533E+01
  0.51149011E+01  0.50219623E+01  0.49336607E+01  0.48498131E+01  0.47702292E+01
  0.46947132E+01  0.46230649E+01  0.45550801E+01  0.44905522E+01  0.44292730E+01
  0.43710335E+01  0.43156253E+01  0.42628409E+01  0.42124753E+01  0.41643264E+01
  0.41181961E+01  0.40738910E+01  0.40312231E+01  0.39900106E+01  0.39500785E+01
  0.39112594E+01  0.38733936E+01  0.38363302E+01  0.37999268E+01  0.37640507E+01
  0.37285785E+01  0.36933967E+01  0.36584017E+01  0.36235001E+01  0.35886087E+01
  0.35536544E+01  0.35185741E+01  0.34833148E+01  0.34478330E+01  0.34120950E+01
  0.33760763E+01  0.33397613E+01  0.33031428E+01  0.32662221E+01  0.32290078E+01
  0.31915159E+01  0.31537690E+01  0.31157960E+01  0.30776312E+01  0.30393140E+01
  0.30008882E+01  0.29624013E+01  0.29239041E+01  0.28854502E+01  0.28470948E+01
  0.28088949E+01  0.27709082E+01  0.27331928E+01  0.26958063E+01  0.26588058E+01
  0.26222470E+01  0.25861838E+01  0.25506681E+01  0.25157490E+01  0.24814729E+01
  0.24478825E+01  0.24150172E+01  0.23829127E+01  0.23516002E+01  0.23211069E+01
  0.22914557E+01  0.22626647E+01  0.22347478E+01  0.22077139E+01  0.21815677E+01
  0.21563092E+01  0.21319340E+01  0.21084332E+01  0.20857940E+01  0.20639994E+01
  0.20430287E+01  0.20228577E+01  0.20034587E+01  0.19848013E+01  0.19668520E+01
  0.19495750E+01  0.19329326E+01  0.19168850E+01  0.19013910E+01  0.18864085E+01
  0.18718943E+01  0.18578049E+01  0.18440967E+01  0.18307263E+01  0.18176507E+01
  0.18048279E+01  0.17922167E+01  0.17797776E+01  0.17674725E+01  0.17552652E+01
  0.17431217E+01  0.17310101E+01  0.17189011E+01  0.17067677E+01  0.16945858E+01
  0.16823342E+01  0.16699942E+01  0.16575505E+01  0.16449904E+01  0.16323041E+01
  0.16194850E+01  0.16065292E+01  0.15934356E+01  0.15802058E+01  0.15668441E+01
  0.15533571E+01  0.15397538E+01  0.15260454E+01  0.15122451E+01  0.14983678E+01
  0.14844302E+01  0.14704503E+01  0.14564472E+01  0.14424412E+01  0.14284533E+01
  0.14145048E+01  0.14006178E+01  0.13868141E+01  0.13731156E+01  0.13595440E+01
  0.13461203E+01  0.13328649E+01  0.13197974E+01  0.13069365E+01  0.12942994E+01
  0.12819023E+01  0.12697598E+01  0.12578851E+01  0.12462897E+01  0.12349834E+01
  0.12239743E+01  0.12132685E+01  0.12028704E+01  0.11927826E+01  0.11830059E+01
  0.11735390E+01  0.11643791E+01  0.11555216E+01  0.11469602E+01  0.11386871E+01
  0.11306929E+01  0.11229669E+01  0.11154971E+01  0.11082703E+01  0.11012722E+01
  0.10944879E+01  0.10879013E+01  0.10814960E+01  0.10752551E+01  0.10691613E+01
  0.10631972E+01  0.10573452E+01  0.10515880E+01  0.10459085E+01  0.10402900E+01
  0.10347161E+01  0.10291713E+01  0.10236408E+01  0.10181106E+01  0.10125675E+01
  0.10069995E+01  0.10013958E+01  0.99574650E+00  0.99004312E+00  0.98427836E+00
  0.97844624E+00  0.97254208E+00  0.96656252E+00  0.96050550E+00  0.95437025E+00
  0.94815729E+00  0.94186833E+00  0.93550629E+00  0.92907520E+00  0.92258015E+00
  0.91602724E+00  0.90942345E+00  0.90277659E+00  0.89609521E+00  0.88938849E+00
  0.88266614E+00  0.87593829E+00  0.86921542E+00  0.86250823E+00  0.85582751E+00
  0.84918409E+00  0.84258871E+00  0.83605192E+00  0.82958400E+00  0.82319486E+00
  0.81689394E+00  0.81069016E+00  0.80459183E+00  0.79860658E+00  0.79274129E+00
  0.78700207E+00  0.78139418E+00  0.77592203E+00  0.77058911E+00  0.76539802E+00
  0.76035042E+00  0.75544705E+00  0.75068774E+00  0.74607138E+00  0.74159601E+00
  0.73725881E+00  0.73305613E+00  0.72898355E+00  0.72503591E+00  0.72120741E+00
  0.71749159E+00  0.71388149E+00  0.71036963E+00  0.70694816E+00  0.70360887E+00
  0.70034329E+00  0.69714279E+00  0.69399861E+00  0.69090196E+00  0.68784411E+00
  0.68481644E+00  0.68181050E+00  0.67881812E+00  0.67583143E+00  0.67284296E+00
  0.66984566E+00  0.66683299E+00  0.66379894E+00  0.66073806E+00  0.65764555E+00
  0.65451722E+00  0.65134956E+00  0.64813974E+00  0.64488561E+00  0.64158573E+00
  0.63823935E+00  0.63484639E+00  0.63140746E+00  0.62792381E+00  0.62439732E+00
  0.62083048E+00  0.61722632E+00  0.61358840E+00  0.60992076E+00  0.60622788E+00
  0.60251461E+00  0.59878612E+00  0.59504788E+00  0.59130556E+00  0.58756498E+00
  0.58383209E+00  0.58011287E+00  0.57641330E+00  0.57273929E+00  0.56909663E+00
  0.56549095E+00  0.56192764E+00  0.55841184E+00  0.55494838E+00  0.55154171E+00
  0.54819592E+00  0.54491467E+00  0.54170116E+00  0.53855815E+00  0.53548788E+00
  0.53249208E+00  0.52957201E+00  0.52672837E+00  0.52396137E+00  0.52127069E+00
  0.51865552E+00  0.51611456E+00  0.51364602E+00  0.51124768E+00  0.50891690E+00
  0.50665063E+00  0.50444546E+00  0.50229766E+00  0.50020322E+00  0.49815785E+00
  0.49615709E+00  0.49419628E+00  0.49227065E+00  0.49037537E+00  0.48850553E+00
  0.48665627E+00  0.48482274E+00  0.48300021E+00  0.48118405E+00  0.47936984E+00
  0.47755332E+00  0.47573050E+00  0.47389765E+00  0.47205133E+00  0.47018842E+00
  0.46830617E+00  0.46640216E+00  0.46447436E+00  0.46252113E+00  0.46054122E+00
  0.45853378E+00  0.45649835E+00  0.45443488E+00  0.45234368E+00  0.45022548E+00
  0.44808134E+00  0.44591268E+00  0.44372124E+00  0.44150909E+00  0.43927854E+00
  0.43703219E+00  0.43477285E+00  0.43250352E+00  0.43022736E+00  0.42794768E+00
  0.42566786E+00  0.42339137E+00  0.42112170E+00  0.41886233E+00  0.41661671E+00
  0.41438823E+00  0.41218018E+00  0.40999571E+00  0.40783783E+00  0.40570935E+00
  0.40361289E+00  0.40155084E+00  0.39952533E+00  0.39753825E+00  0.39559119E+00
  0.39368547E+00  0.39182211E+00  0.39000182E+00  0.38822501E+00  0.38649179E+00
  0.38480197E+00  0.38315505E+00  0.38155027E+00  0.37998655E+00  0.37846258E+00
  0.37697680E+00  0.37552741E+00  0.37411238E+00  0.37272953E+00  0.37137648E+00
  0.37005073E+00  0.36874964E+00  0.36747048E+00  0.36621046E+00  0.36496674E+00
  0.36373647E+00  0.36251680E+00  0.36130491E+00  0.36009805E+00  0.35889355E+00
  0.35768885E+00  0.35648151E+00  0.35526923E+00  0.35404989E+00  0.35282155E+00
  0.35158246E+00  0.35033109E+00  0.34906610E+00  0.34778640E+00  0.34649113E+00
  0.34517968E+00  0.34385163E+00  0.34250686E+00  0.34114544E+00  0.33976768E+00
  0.33837413E+00  0.33696554E+00  0.33554285E+00  0.33410723E+00  0.33265998E+00
  0.33120258E+00  0.32973668E+00  0.32826400E+00  0.32678641E+00  0.32530586E+00
  0.32382436E+00  0.32234396E+00  0.32086676E+00  0.31939484E+00  0.31793030E+00
  0.31647517E+00  0.31503145E+00  0.31360106E+00  0.31218584E+00  0.31078753E+00
  0.30940772E+00  0.30804789E+00  0.30670938E+00  0.30539336E+00  0.30410083E+00
  0.30283262E+00  0.30158941E+00  0.30037164E+00  0.29917962E+00  0.29801345E+00
  0.29687304E+00  0.29575813E+00  0.29466828E+00  0.29360288E+00  0.29256115E+00
  0.29154216E+00  0.29054485E+00  0.28956802E+00  0.28861034E+00  0.28767040E+00
  0.28674667E+00  0.28583758E+00  0.28494148E+00  0.28405667E+00  0.28318145E+00
  0.28231408E+00  0.28145285E+00  0.28059606E+00  0.27974203E+00  0.27888915E+00
  0.27803589E+00  0.27718077E+00  0.27632242E+00  0.27545957E+00  0.27459105E+00
  0.27371584E+00  0.27283302E+00  0.27194182E+00  0.27104162E+00  0.27013194E+00
  0.26921242E+00  0.26828289E+00  0.26734331E+00  0.26639377E+00  0.26543452E+00
  0.26446596E+00  0.26348859E+00  0.26250305E+00  0.26151011E+00  0.26051062E+00
  0.25950556E+00  0.25849596E+00  0.25748295E+00  0.25646771E+00  0.25545148E+00
  0.25443552E+00  0.25342114E+00  0.25240964E+00  0.25140233E+00  0.25040050E+00
  0.24940541E+00  0.24841829E+00  0.24744031E+00  0.24647259E+00  0.24551616E+00
  0.24457199E+00  0.24364093E+00  0.24272377E+00  0.24182117E+00  0.24093369E+00
  0.24006177E+00  0.23920574E+00  0.23836582E+00  0.23754208E+00  0.23673451E+00
  0.23594297E+00  0.23516718E+00  0.23440677E+00  0.23366128E+00  0.23293011E+00
  0.23221260E+00  0.23150798E+00  0.23081541E+00  0.23013399E+00  0.22946275E+00
  0.22880066E+00  0.22814667E+00  0.22749970E+00  0.22685862E+00  0.22622234E+00
  0.22558972E+00  0.22495969E+00  0.22433114E+00  0.22370305E+00  0.22307440E+00
  0.22244426E+00  0.22181173E+00  0.22117599E+00  0.22053630E+00  0.21989200E+00
  0.21924251E+00  0.21858734E+00  0.21792610E+00  0.21725851E+00  0.21658436E+00
  0.21590356E+00  0.21521611E+00  0.21452212E+00  0.21382178E+00  0.21311538E+00
  0.21240330E+00  0.21168601E+00  0.21096404E+00  0.21023800E+00  0.20950858E+00
  0.20877650E+00  0.20804255E+00  0.20730756E+00  0.20657238E+00  0.20583789E+00
  0.20510498E+00  0.20437456E+00  0.20364751E+00  0.20292473E+00  0.20220708E+00
  0.20149539E+00  0.20079046E+00  0.20009303E+00  0.19940380E+00  0.19872342E+00
  0.19805244E+00  0.19739139E+00  0.19674067E+00  0.19610065E+00  0.19547159E+00
  0.19485368E+00  0.19424701E+00  0.19365162E+00  0.19306741E+00  0.19249426E+00
  0.19193192E+00  0.19138008E+00  0.19083835E+00  0.19030629E+00  0.18978336E+00
  0.18926899E+00  0.18876253E+00  0.18826331E+00  0.18777059E+00  0.18728362E+00
  0.18680161E+00  0.18632376E+00  0.18584927E+00  0.18537730E+00  0.18490707E+00
  0.18443776E+00  0.18396860E+00  0.18349884E+00  0.18302777E+00  0.18255472E+00
  0.18207906E+00  0.18160022E+00  0.18111770E+00  0.18063103E+00  0.18013985E+00
  0.17964383E+00  0.17914273E+00  0.17863640E+00  0.17812472E+00  0.17760770E+00
  0.17708538E+00  0.17655790E+00  0.17602546E+00  0.17548833E+00  0.17494684E+00
  0.17440140E+00  0.17385247E+00  0.17330054E+00  0.17274619E+00  0.17219001E+00
  0.17163264E+00  0.17107472E+00  0.17051695E+00  0.16996003E+00  0.16940466E+00
  0.16885156E+00  0.16830141E+00  0.16775491E+00  0.16721273E+00  0.16667552E+00
  0.16614388E+00  0.16561838E+00  0.16509957E+00  0.16458791E+00  0.16408384E+00
  0.16358772E+00  0.16309987E+00  0.16262053E+00  0.16214988E+00  0.16168805E+00
  0.16123506E+00  0.16079092E+00  0.16035552E+00  0.15992872E+00  0.15951030E+00
  0.15909998E+00  0.15869741E+00  0.15830220E+00  0.15791390E+00  0.15753203E+00
  0.15715604E+00  0.15678535E+00  0.15641937E+00  0.15605746E+00  0.15569897E+00
  0.15534324E+00  0.15498960E+00  0.15463737E+00  0.15428590E+00  0.15393454E+00
  0.15358264E+00  0.15322959E+00  0.15287483E+00  0.15251779E+00  0.15215799E+00
  0.15179495E+00  0.15142826E+00  0.15105757E+00  0.15068257E+00  0.15030303E+00
  0.14991874E+00  0.14952960E+00  0.14913554E+00  0.14873656E+00  0.14833272E+00
  0.14792415E+00  0.14751103E+00  0.14709360E+00  0.14667216E+00  0.14624706E+00
  0.14581869E+00  0.14538750E+00  0.14495396E+00  0.14451859E+00  0.14408193E+00
  0.14364456E+00  0.14320705E+00  0.14277001E+00  0.14233404E+00  0.14189976E+00
  0.14146776E+00  0.14103863E+00  0.14061296E+00  0.14019130E+00  0.13977417E+00
  0.13936208E+00  0.13895548E+00  0.13855479E+00  0.13816040E+00  0.13777262E+00
  0.13739172E+00  0.13701794E+00  0.13665144E+00  0.13629233E+00  0.13594066E+00
  0.13559643E+00  0.13525958E+00  0.13492998E+00  0.13460745E+00  0.13429179E+00
  0.13398269E+00  0.13367983E+00  0.13338285E+00  0.13309132E+00  0.13280478E+00
  0.13252276E+00  0.13224473E+00  0.13197016E+00  0.13169849E+00  0.13142915E+00
  0.13116156E+00  0.13089514E+00  0.13062931E+00  0.13036350E+00  0.13009715E+00
  0.12982974E+00  0.12956074E+00  0.12928966E+00  0.12901606E+00  0.12873952E+00
  0.12845965E+00  0.12817614E+00  0.12788869E+00  0.12759707E+00  0.12730109E+00
  0.12700063E+00  0.12669559E+00  0.12638595E+00  0.12607175E+00  0.12575306E+00
  0.12543002E+00  0.12510280E+00  0.12477165E+00  0.12443684E+00  0.12409869E+00
  0.12375757E+00  0.12341387E+00  0.12306803E+00  0.12272051E+00  0.12237179E+00
  0.12202238E+00  0.12167278E+00  0.12132353E+00  0.12097516E+00  0.12062820E+00
  0.12028317E+00  0.11994059E+00  0.11960095E+00  0.11926474E+00  0.11893240E+00
  0.11860437E+00  0.11828104E+00  0.11796276E+00  0.11764986E+00  0.11734260E+00
  0.11704123E+00  0.11674592E+00  0.11645681E+00  0.11617398E+00  0.11589749E+00
  0.11562730E+00  0.11536337E+00  0.11510558E+00  0.11485377E+00  0.11460774E+00
  0.11436724E+00  0.11413197E+00  0.11390162E+00  0.11367582E+00  0.11345416E+00
  0.11323624E+00  0.11302159E+00  0.11280975E+00  0.11260023E+00  0.11239255E+00
  0.11218620E+00  0.11198068E+00  0.11177548E+00  0.11157013E+00  0.11136413E+00
  0.11115703E+00  0.11094838E+00  0.11073777E+00  0.11052480E+00  0.11030911E+00
  0.11009038E+00  0.10986834E+00  0.10964272E+00  0.10941333E+00  0.10918001E+00
  0.10894265E+00  0.10870117E+00  0.10845555E+00  0.10820583E+00  0.10795206E+00
  0.10769436E+00  0.10743290E+00  0.10716786E+00  0.10689949E+00  0.10662806E+00
  0.10635389E+00  0.10607733E+00  0.10579872E+00  0.10551849E+00  0.10523703E+00
  0.10495479E+00  0.10467220E+00  0.10438972E+00  0.10410780E+00  0.10382690E+00
  0.10354748E+00  0.10326997E+00  0.10299481E+00  0.10272241E+00  0.10245316E+00
  0.10218744E+00  0.10192557E+00  0.10166789E+00  0.10141465E+00  0.10116611E+00
  0.10092246E+00  0.10068388E+00  0.10045048E+00  0.10022236E+00  0.99999537E-01
  0.99782023E-01  0.99569769E-01  0.99362688E-01  0.99160654E-01  0.98963499E-01
  0.98771019E-01  0.98582973E-01  0.98399089E-01  0.98219061E-01  0.98042558E-01
  0.97869224E-01  0.97698683E-01  0.97530539E-01  0.97364385E-01  0.97199802E-01
  0.97036367E-01  0.96873654E-01  0.96711239E-01  0.96548702E-01  0.96385635E-01
  0.96221642E-01  0.96056344E-01  0.95889380E-01  0.95720416E-01  0.95549143E-01
  0.95375279E-01  0.95198577E-01  0.95018820E-01  0.94835828E-01  0.94649459E-01
  0.94459607E-01  0.94266204E-01  0.94069223E-01  0.93868675E-01  0.93664608E-01
  0.93457110E-01  0.93246304E-01  0.93032352E-01  0.92815445E-01  0.92595811E-01
  0.92373703E-01  0.92149403E-01  0.91923219E-01  0.91695477E-01  0.91466522E-01
  0.91236715E-01  0.91006428E-01  0.90776038E-01  0.90545930E-01  0.90316487E-01
  0.90088090E-01  0.89861115E-01  0.89635925E-01  0.89412873E-01  0.89192294E-01
  0.88974503E-01  0.88759795E-01  0.88548437E-01  0.88340670E-01  0.88136708E-01
  0.87936730E-01  0.87740885E-01  0.87549287E-01  0.87362015E-01  0.87179115E-01
  0.87000595E-01  0.86826430E-01  0.86656557E-01  0.86490881E-01  0.86329275E-01
  0.86171577E-01  0.86017597E-01  0.85867117E-01  0.85719892E-01  0.85575652E-01
  0.85434110E-01  0.85294957E-01  0.85157870E-01  0.85022514E-01  0.84888546E-01
  0.84755615E-01  0.84623368E-01  0.84491453E-01  0.84359522E-01  0.84227234E-01
 gradient corrections used for XC
           5
 core charge-density (partial)
  0.64232593E-03  0.64214317E-03  0.64159519E-03  0.64068282E-03  0.63940744E-03
  0.63777098E-03  0.63577595E-03  0.63342534E-03  0.63072273E-03  0.62767219E-03
  0.62427831E-03  0.62054621E-03  0.61648147E-03  0.61209017E-03  0.60737886E-03
  0.60235452E-03  0.59702459E-03  0.59139693E-03  0.58547978E-03  0.57928178E-03
  0.57281193E-03  0.56607958E-03  0.55909439E-03  0.55186635E-03  0.54440570E-03
  0.53672296E-03  0.52882888E-03  0.52073442E-03  0.51245073E-03  0.50398913E-03
  0.49536108E-03  0.48657817E-03  0.47765208E-03  0.46859455E-03  0.45941737E-03
  0.45013238E-03  0.44075140E-03  0.43128621E-03  0.42174860E-03  0.41215023E-03
  0.40250272E-03  0.39281755E-03  0.38310609E-03  0.37337955E-03  0.36364896E-03
  0.35392518E-03  0.34421884E-03  0.33454038E-03  0.32489995E-03  0.31530748E-03
  0.30577262E-03  0.29630472E-03  0.28691284E-03  0.27760574E-03  0.26839184E-03
  0.25927922E-03  0.25027565E-03  0.24138852E-03  0.23262486E-03  0.22399136E-03
  0.21549432E-03  0.20713967E-03  0.19893297E-03  0.19087938E-03  0.18298371E-03
  0.17525035E-03  0.16768335E-03  0.16028633E-03  0.15306257E-03  0.14601497E-03
  0.13914604E-03  0.13245793E-03  0.12595244E-03  0.11963100E-03  0.11349469E-03
  0.10754427E-03  0.10178013E-03  0.96202374E-04  0.90810764E-04  0.85604767E-04
  0.80583551E-04  0.75746001E-04  0.71090728E-04  0.66616080E-04  0.62320155E-04
  0.58200812E-04  0.54255683E-04  0.50482189E-04  0.46877547E-04  0.43438787E-04
  0.40162761E-04  0.37046162E-04  0.34085529E-04  0.31277266E-04  0.28617653E-04
  0.26102856E-04  0.23728944E-04  0.21491897E-04  0.19387622E-04  0.17411962E-04
  0.15560708E-04  0.13829612E-04  0.12214398E-04  0.10710770E-04  0.93144266E-05
  0.80210675E-05  0.68264050E-05  0.57261728E-05  0.47161350E-05  0.37920947E-05
  0.29499019E-05  0.21854611E-05  0.14947386E-05  0.87376925E-06  0.31866260E-06
 -0.17439120E-06 -0.60911603E-06 -0.98914487E-06 -0.13180153E-05 -0.15991656E-05
 -0.18359309E-05 -0.20315405E-05 -0.21891145E-05 -0.23116620E-05 -0.24020793E-05
 -0.24631478E-05 -0.24975336E-05 -0.25077862E-05 -0.24963386E-05 -0.24655069E-05
 -0.24174911E-05 -0.23543752E-05 -0.22781284E-05 -0.21906066E-05 -0.20935534E-05
 -0.19886023E-05 -0.18772784E-05 -0.17610010E-05 -0.16410854E-05 -0.15187465E-05
 -0.13951005E-05 -0.12711687E-05 -0.11478803E-05 -0.10260754E-05 -0.90650881E-06
 -0.78985290E-06 -0.67670155E-06 -0.56757348E-06 -0.46291588E-06 -0.36310806E-06
 -0.26846506E-06 -0.17924134E-06 -0.95634381E-07 -0.17788312E-07  0.54202486E-07
  0.12028985E-06  0.18046833E-06  0.23477179E-06  0.28327002E-06  0.32606545E-06
  0.36329000E-06  0.39510196E-06  0.42168298E-06  0.44323521E-06  0.45997848E-06
  0.47214767E-06  0.47999017E-06  0.48376341E-06  0.48373261E-06  0.48016858E-06
  0.47334567E-06  0.46353989E-06  0.45102706E-06  0.43608121E-06  0.41897300E-06
  0.39996834E-06  0.37932710E-06  0.35730194E-06  0.33413729E-06  0.31006840E-06
  0.28532055E-06  0.26010835E-06  0.23463514E-06  0.20909249E-06  0.18365986E-06
  0.15850422E-06  0.13377994E-06  0.10962860E-06  0.86178970E-07  0.63547050E-07
  0.41836180E-07  0.21137200E-07  0.15286930E-08 -0.16922733E-07 -0.34162101E-07
 -0.50145685E-07 -0.64840577E-07 -0.78224230E-07 -0.90283961E-07 -0.10101643E-06
 -0.11042709E-06 -0.11852965E-06 -0.12534545E-06 -0.13090292E-06 -0.13523696E-06
 -0.13838837E-06 -0.14040322E-06 -0.14133227E-06 -0.14123040E-06 -0.14015603E-06
 -0.13817053E-06 -0.13533771E-06 -0.13172325E-06 -0.12739424E-06 -0.12241862E-06
 -0.11686476E-06 -0.11080100E-06 -0.10429522E-06 -0.97414476E-07 -0.90224580E-07
 -0.82789800E-07 -0.75172534E-07 -0.67433020E-07 -0.59629084E-07 -0.51815911E-07
 -0.44045839E-07 -0.36368191E-07 -0.28829123E-07 -0.21471507E-07 -0.14334839E-07
 -0.74551615E-08 -0.86502811E-09  0.54065250E-08  0.11333976E-07  0.16895299E-07
  0.22071920E-07  0.26848659E-07  0.31213655E-07  0.35158270E-07  0.38676984E-07
  0.41767276E-07  0.44429488E-07  0.46666682E-07  0.48484491E-07  0.49890958E-07
  0.50896366E-07  0.51513067E-07  0.51755309E-07  0.51639052E-07  0.51181792E-07
  0.50402374E-07  0.49320816E-07  0.47958128E-07  0.46336133E-07  0.44477298E-07
  0.42404561E-07  0.40141167E-07  0.37710514E-07  0.35135995E-07  0.32440857E-07
  0.29648063E-07  0.26780161E-07  0.23859166E-07  0.20906444E-07  0.17942611E-07
  0.14987440E-07  0.12059773E-07  0.91774463E-08  0.63572275E-08  0.36147550E-08
  0.96449291E-09 -0.15803081E-08 -0.40076396E-08 -0.63067558E-08 -0.84681856E-08
 -0.10483736E-07 -0.12346489E-07 -0.14050788E-07 -0.15592221E-07 -0.16967593E-07
 -0.18174896E-07 -0.19213270E-07 -0.20082963E-07 -0.20785277E-07 -0.21322524E-07
 -0.21697962E-07 -0.21915740E-07 -0.21980835E-07 -0.21898986E-07 -0.21676630E-07
 -0.21320827E-07 -0.20839201E-07 -0.20239859E-07 -0.19531331E-07 -0.18722492E-07
 -0.17822500E-07 -0.16840724E-07 -0.15786679E-07 -0.14669958E-07 -0.13500178E-07
 -0.12286909E-07 -0.11039624E-07 -0.97676415E-08 -0.84800750E-08 -0.71857830E-08
 -0.58933255E-08 -0.46109220E-08 -0.33464143E-08 -0.21072319E-08 -0.90036246E-09
  0.26767487E-09  0.13908518E-08  0.24636494E-08  0.34810732E-08  0.44386641E-08
  0.53325058E-08  0.61592287E-08  0.69160103E-08  0.76005723E-08  0.82111741E-08
  0.87466045E-08  0.92061685E-08  0.95896738E-08  0.98974125E-08  0.10130142E-07
  0.10289065E-07  0.10375801E-07  0.10392367E-07  0.10341149E-07  0.10224871E-07
  0.10046569E-07  0.98095607E-08  0.95174142E-08  0.91739178E-08  0.87830482E-08
  0.83489398E-08  0.78758532E-08  0.73681447E-08  0.68302363E-08  0.62665855E-08
  0.56816571E-08  0.50798951E-08  0.44656964E-08  0.38433846E-08  0.32171867E-08
  0.25912096E-08  0.19694194E-08  0.13556215E-08  0.75344263E-09  0.16631466E-09
 -0.40254013E-09 -0.95012171E-09 -0.14736634E-08 -0.19706410E-08 -0.24387803E-08
 -0.28760628E-08 -0.32807296E-08 -0.36512835E-08 -0.39864898E-08 -0.42853751E-08
 -0.45472246E-08 -0.47715784E-08 -0.49582255E-08 -0.51071973E-08 -0.52187594E-08
 -0.52934024E-08 -0.53318317E-08 -0.53349558E-08 -0.53038748E-08 -0.52398669E-08
 -0.51443752E-08 -0.50189933E-08 -0.48654510E-08 -0.46855989E-08 -0.44813935E-08
 -0.42548817E-08 -0.40081855E-08 -0.37434862E-08 -0.34630095E-08 -0.31690104E-08
 -0.28637580E-08 -0.25495215E-08 -0.22285561E-08 -0.19030897E-08 -0.15753097E-08
 -0.12473511E-08 -0.92128483E-09 -0.59910699E-09 -0.28272890E-09  0.26032104E-10
  0.32546100E-09  0.61395252E-09  0.89001769E-09  0.11522895E-08  0.13995276E-08
  0.16306222E-08  0.18445968E-08  0.20406107E-08  0.22179593E-08  0.23760753E-08
  0.25145274E-08  0.26330194E-08  0.27313876E-08  0.28095983E-08  0.28677443E-08
  0.29060399E-08  0.29248168E-08  0.29245184E-08  0.29056935E-08  0.28689905E-08
  0.28151498E-08  0.27449974E-08  0.26594366E-08  0.25594407E-08  0.24460450E-08
  0.23203384E-08  0.21834554E-08  0.20365677E-08  0.18808763E-08  0.17176026E-08
  0.15479812E-08  0.13732511E-08  0.11946486E-08  0.10133994E-08  0.83071156E-09
  0.64776863E-09  0.46572284E-09  0.28568906E-09  0.10873897E-09 -0.64104355E-10
 -0.23187137E-09 -0.39365053E-09 -0.54859230E-09 -0.69591267E-09 -0.83489617E-09
 -0.96489840E-09 -0.10853480E-08 -0.11957483E-08 -0.12956783E-08 -0.13847929E-08
 -0.14628235E-08 -0.15295774E-08 -0.15849365E-08 -0.16288568E-08 -0.16613660E-08
 -0.16825618E-08 -0.16926096E-08 -0.16917389E-08 -0.16802412E-08 -0.16584659E-08
 -0.16268168E-08 -0.15857484E-08 -0.15357613E-08 -0.14773986E-08 -0.14112408E-08
 -0.13379016E-08 -0.12580233E-08 -0.11722720E-08 -0.10813330E-08 -0.98590594E-09
 -0.88670032E-09 -0.78443079E-09 -0.67981267E-09 -0.57355757E-09 -0.46636908E-09
 -0.35893869E-09 -0.25194184E-09 -0.14603423E-09 -0.41848238E-10  0.60010292E-10
  0.15896515E-09  0.25447252E-09  0.34602349E-09  0.43314632E-09  0.51540836E-09
  0.59241777E-09  0.66382487E-09  0.72932323E-09  0.78865052E-09  0.84158895E-09
  0.88796556E-09  0.92765214E-09  0.96056496E-09  0.98666411E-09  0.10059527E-08
  0.10184759E-08  0.10243195E-08  0.10236083E-08  0.10165046E-08  0.10032064E-08
  0.98394493E-09  0.95898265E-09  0.92861098E-09  0.89314769E-09  0.85293432E-09
  0.80833358E-09  0.75972659E-09  0.70751010E-09  0.65209369E-09  0.59389699E-09
  0.53334683E-09  0.47087448E-09  0.40691288E-09  0.34189400E-09  0.27624616E-09
  0.21039155E-09  0.14474375E-09  0.79705414E-10  0.15666056E-10 -0.47000012E-10
 -0.10793563E-09 -0.16680257E-09 -0.22328316E-09 -0.27708179E-09 -0.32792614E-09
 -0.37556837E-09 -0.41978607E-09 -0.46038297E-09 -0.49718964E-09 -0.53006383E-09
 -0.55889075E-09 -0.58358315E-09 -0.60408123E-09 -0.62035237E-09 -0.63239071E-09
 -0.64021658E-09 -0.64387581E-09 -0.64343885E-09 -0.63899976E-09 -0.63067519E-09
 -0.61860304E-09 -0.60294126E-09 -0.58386634E-09 -0.56157188E-09 -0.53626700E-09
 -0.50817470E-09 -0.47753024E-09 -0.44457937E-09 -0.40957665E-09 -0.37278363E-09
 -0.33446719E-09 -0.29489770E-09 -0.25434736E-09 -0.21308845E-09 -0.17139169E-09
 -0.12952459E-09 -0.87749935E-10 -0.46324230E-10 -0.54962931E-11  0.34494101E-10
  0.73417494E-10  0.11105592E-09  0.14720400E-09  0.18166992E-09  0.21427630E-09
  0.24486098E-09  0.27327771E-09  0.29939666E-09  0.32310487E-09  0.34430662E-09
  0.36292363E-09  0.37889512E-09  0.39217789E-09  0.40274617E-09  0.41059140E-09
  0.41572196E-09  0.41816270E-09  0.41795452E-09  0.41515373E-09  0.40983138E-09
  0.40207257E-09  0.39197558E-09  0.37965102E-09  0.36522091E-09  0.34881768E-09
  0.33058315E-09  0.31066747E-09  0.28922803E-09  0.26642837E-09  0.24243700E-09
  0.21742635E-09  0.19157155E-09  0.16504937E-09  0.13803709E-09  0.11071137E-09
  0.83247247E-10  0.55817044E-10  0.28589407E-10  0.17283296E-11 -0.24607742E-10
 -0.50266774E-10 -0.75103936E-10 -0.98982347E-10 -0.12177375E-09 -0.14335912E-09
 -0.16362921E-09 -0.18248501E-09 -0.19983818E-09 -0.21561134E-09 -0.22973834E-09
 -0.24216445E-09 -0.25284644E-09 -0.26175266E-09 -0.26886296E-09 -0.27416861E-09
 -0.27767215E-09 -0.27938709E-09 -0.27933768E-09 -0.27755851E-09 -0.27409410E-09
 -0.26899846E-09 -0.26233455E-09 -0.25417374E-09 -0.24459520E-09 -0.23368524E-09
 -0.22153671E-09 -0.20824825E-09 -0.19392360E-09 -0.17867085E-09 -0.16260173E-09
 -0.14583083E-09 -0.12847486E-09 -0.11065187E-09 -0.92480543E-10 -0.74079447E-10
 -0.55566293E-10 -0.37057254E-10 -0.18666277E-10 -0.50443197E-12  0.17320712E-10
  0.34705678E-10  0.51551632E-10  0.67764904E-10  0.83257458E-10  0.97947323E-10
  0.11175899E-09  0.12462372E-09  0.13647989E-09  0.14727319E-09  0.15695683E-09
  0.16549170E-09  0.17284644E-09  0.17899753E-09  0.18392923E-09  0.18763359E-09
  0.19011032E-09  0.19136664E-09  0.19141713E-09  0.19028351E-09  0.18799433E-09
  0.18458472E-09  0.18009602E-09  0.17457544E-09  0.16807564E-09  0.16065434E-09
  0.15237385E-09  0.14330061E-09  0.13350473E-09  0.12305948E-09  0.11204077E-09
  0.10052667E-09  0.88596893E-10  0.76332243E-10  0.63814145E-10  0.51124114E-10
  0.38343265E-10  0.25551818E-10  0.12828634E-10  0.25074992E-12 -0.12107053E-10
 -0.24172669E-10 -0.35877056E-10 -0.47154608E-10 -0.57943488E-10 -0.68185942E-10
 -0.77828580E-10 -0.86822623E-10 -0.95124119E-10 -0.10269413E-09 -0.10949886E-09
 -0.11550983E-09 -0.12070387E-09 -0.12506324E-09 -0.12857563E-09 -0.13123410E-09
 -0.13303708E-09 -0.13398826E-09 -0.13409648E-09 -0.13337557E-09 -0.13184423E-09
 -0.12952578E-09 -0.12644795E-09 -0.12264266E-09 -0.11814571E-09 -0.11299656E-09
 -0.10723794E-09 -0.10091562E-09 -0.94078019E-10 -0.86775885E-10 -0.79061953E-10
 -0.70990579E-10 -0.62617387E-10 -0.53998905E-10 -0.45192205E-10 -0.36254548E-10
 -0.27243033E-10 -0.18214245E-10 -0.92239281E-11 -0.32665120E-12  0.84244992E-11
  0.16978220E-10  0.25285274E-10  0.33298755E-10  0.40974335E-10  0.48270492E-10
  0.55148715E-10  0.61573691E-10  0.67513463E-10  0.72939572E-10  0.77827174E-10
  0.82155126E-10  0.85906061E-10  0.89066424E-10  0.91626499E-10  0.93580397E-10
  0.94926038E-10  0.95665093E-10  0.95802918E-10  0.95348456E-10  0.94314130E-10
  0.92715706E-10  0.90572142E-10  0.87905422E-10  0.84740376E-10  0.81104475E-10
  0.77027627E-10  0.72541954E-10  0.67681559E-10  0.62482285E-10  0.56981472E-10
  0.51217705E-10  0.45230554E-10  0.39060325E-10  0.32747794E-10  0.26333958E-10
  0.19859777E-10  0.13365928E-10  0.68925605E-11  0.47905903E-12 -0.58361823E-11
 -0.12015979E-10 -0.18024565E-10 -0.23827785E-10 -0.29393280E-10 -0.34690654E-10
 -0.39691630E-10 -0.44370187E-10 -0.48702684E-10 -0.52667968E-10 -0.56247459E-10
 -0.59425231E-10 -0.62188057E-10 -0.64525456E-10 -0.66429711E-10 -0.67895872E-10
 -0.68921743E-10 -0.69507854E-10 -0.69657414E-10 -0.69376251E-10 -0.68672734E-10
 -0.67557686E-10 -0.66044277E-10 -0.64147908E-10 -0.61886083E-10 -0.59278272E-10
 -0.56345759E-10 -0.53111486E-10 -0.49599888E-10 -0.45836720E-10 -0.41848882E-10
 -0.37664236E-10 -0.33311422E-10 -0.28819670E-10 -0.24218619E-10 -0.19538121E-10
 -0.14808064E-10 -0.10058184E-10 -0.53178904E-11 -0.61608878E-12  0.40189864E-11
  0.85599339E-11  0.12980340E-10  0.17254923E-10  0.21359674E-10  0.25271980E-10
  0.28970743E-10  0.32436484E-10  0.35651439E-10  0.38599643E-10  0.41266994E-10
  0.43641320E-10  0.45712417E-10  0.47472087E-10  0.48914153E-10  0.50034472E-10
  0.50830927E-10  0.51303411E-10  0.51453794E-10  0.51285892E-10  0.50805403E-10
  0.50019853E-10  0.48938522E-10  0.47572359E-10  0.45933891E-10  0.44037128E-10
  0.41897450E-10  0.39531498E-10  0.36957052E-10  0.34192904E-10  0.31258736E-10
  0.28174979E-10  0.24962682E-10  0.21643374E-10  0.18238927E-10  0.14771415E-10
  0.11262980E-10  0.77356949E-11  0.42114280E-11  0.71171617E-12 -0.27423635E-11
 -0.61303148E-11 -0.94323394E-11 -0.12629447E-10 -0.15703559E-10 -0.18637606E-10
 -0.21415617E-10 -0.24022804E-10 -0.26445628E-10 -0.28671871E-10 -0.30690688E-10
 -0.32492655E-10 -0.34069803E-10 -0.35415651E-10 -0.36525220E-10 -0.37395044E-10
 -0.38023171E-10 -0.38409151E-10 -0.38554018E-10 -0.38460263E-10 -0.38131802E-10
 -0.37573925E-10 -0.36793250E-10 -0.35797664E-10 -0.34596254E-10 -0.33199237E-10
 -0.31617882E-10 -0.29864426E-10 -0.27951986E-10 -0.25894470E-10 -0.23706475E-10
 -0.21403195E-10 -0.19000315E-10 -0.16513914E-10 -0.13960357E-10 -0.11356192E-10
 -0.87180522E-11 -0.60625448E-11 -0.34061572E-11 -0.76515536E-12  0.18445118E-11
  0.44073050E-11  0.69081836E-11  0.93326902E-11  0.11667031E-10  0.13898151E-10
  0.16013801E-10  0.18002606E-10  0.19854118E-10  0.21558869E-10  0.23108414E-10
  0.24495371E-10  0.25713449E-10  0.26757474E-10  0.27623402E-10  0.28308332E-10
  0.28810506E-10  0.29129304E-10  0.29265235E-10  0.29219915E-10  0.28996047E-10
  0.28597385E-10  0.28028700E-10  0.27295737E-10  0.26405167E-10  0.25364533E-10
  0.24182194E-10  0.22867262E-10  0.21429536E-10  0.19879436E-10  0.18227928E-10
  0.16486453E-10  0.14666848E-10  0.12781271E-10  0.10842123E-10  0.88619658E-11
  0.68534487E-11  0.48292259E-11  0.28018819E-11  0.78385450E-12 -0.12126380E-11
 -0.31756690E-11 -0.50936719E-11 -0.69555061E-11 -0.87505192E-11 -0.10468605E-10
 -0.12100259E-10 -0.13636627E-10 -0.15069551E-10 -0.16391611E-10 -0.17596158E-10
 -0.18677348E-10 -0.19630164E-10 -0.20450437E-10 -0.21134859E-10 -0.21680997E-10
 -0.22087289E-10 -0.22353049E-10 -0.22478455E-10 -0.22464540E-10 -0.22313174E-10
 -0.22027039E-10 -0.21609609E-10 -0.21065110E-10 -0.20398491E-10 -0.19615384E-10
 -0.18722056E-10 -0.17725371E-10 -0.16632732E-10 -0.15452036E-10 -0.14191616E-10
 -0.12860184E-10 -0.11466777E-10 -0.10020695E-10 -0.85314403E-11 -0.70086599E-11
 -0.54620831E-11 -0.39014616E-11 -0.23365103E-11 -0.77684783E-12  0.76805993E-12
  0.22889561E-11  0.37768461E-11  0.52230496E-11  0.66192490E-11  0.79575354E-11
  0.92304522E-11  0.10431034E-10  0.11552844E-10  0.12590006E-10  0.13537231E-10
  0.14389847E-10  0.15143815E-10  0.15795750E-10  0.16342927E-10  0.16783297E-10
  0.17115487E-10  0.17338799E-10  0.17453211E-10  0.17459360E-10  0.17358541E-10
  0.17152682E-10  0.16844328E-10  0.16436618E-10  0.15933260E-10  0.15338497E-10
  0.14657079E-10  0.13894228E-10  0.13055594E-10  0.12147226E-10  0.11175520E-10
  0.10147183E-10  0.90691837E-11  0.79487104E-11  0.67931228E-11  0.56099052E-11
  0.44066200E-11  0.31908604E-11  0.19702038E-11  0.75216613E-12 -0.45584354E-12
 -0.16465664E-11 -0.28129363E-11 -0.39481209E-11 -0.50455597E-11 -0.60990012E-11
 -0.71025371E-11 -0.80506341E-11 -0.89381632E-11 -0.97604257E-11 -0.10513177E-10
 kinetic energy density (partial)
  0.52274132E+00  0.52259281E+00  0.52214749E+00  0.52140604E+00  0.52036958E+00
  0.51903970E+00  0.51741839E+00  0.51550812E+00  0.51331177E+00  0.51083264E+00
  0.50807448E+00  0.50504141E+00  0.50173797E+00  0.49816910E+00  0.49434010E+00
  0.49025665E+00  0.48592478E+00  0.48135085E+00  0.47654157E+00  0.47150394E+00
  0.46624527E+00  0.46077314E+00  0.45509539E+00  0.44922013E+00  0.44315567E+00
  0.43691054E+00  0.43049347E+00  0.42391336E+00  0.41717926E+00  0.41030036E+00
  0.40328596E+00  0.39614547E+00  0.38888837E+00  0.38152419E+00  0.37406252E+00
  0.36651296E+00  0.35888510E+00  0.35118854E+00  0.34343282E+00  0.33562743E+00
  0.32778181E+00  0.31990528E+00  0.31200708E+00  0.30409632E+00  0.29618196E+00
  0.28827283E+00  0.28037757E+00  0.27250466E+00  0.26466236E+00  0.25685875E+00
  0.24910166E+00  0.24139870E+00  0.23375726E+00  0.22618443E+00  0.21868709E+00
  0.21127180E+00  0.20394489E+00  0.19671238E+00  0.18957999E+00  0.18255317E+00
  0.17563705E+00  0.16883646E+00  0.16215594E+00  0.15559970E+00  0.14917165E+00
  0.14287539E+00  0.13671420E+00  0.13069107E+00  0.12480866E+00  0.11906935E+00
  0.11347519E+00  0.10802795E+00  0.10272911E+00  0.97579839E-01  0.92581044E-01
  0.87733344E-01  0.83037088E-01  0.78492363E-01  0.74098996E-01  0.69856568E-01
  0.65764418E-01  0.61821655E-01  0.58027162E-01  0.54379610E-01  0.50877468E-01
  0.47519006E-01  0.44302313E-01  0.41225303E-01  0.38285725E-01  0.35481175E-01
  0.32809104E-01  0.30266833E-01  0.27851557E-01  0.25560361E-01  0.23390227E-01
  0.21338047E-01  0.19400628E-01  0.17574710E-01  0.15856968E-01  0.14244027E-01
  0.12732469E-01  0.11318844E-01  0.99996748E-02  0.87714726E-02  0.76307396E-02
  0.65739801E-02  0.55977075E-02  0.46984522E-02  0.38727687E-02  0.31172424E-02
  0.24284966E-02  0.18031982E-02  0.12380642E-02  0.72986635E-03  0.27543710E-03
 -0.12832609E-03 -0.48445622E-03 -0.79591272E-03 -0.10655778E-02 -0.12962531E-02
 -0.14906569E-02 -0.16514212E-02 -0.17810900E-02 -0.18821168E-02 -0.19568635E-02
 -0.20075989E-02 -0.20364979E-02 -0.20456410E-02 -0.20370136E-02 -0.20125063E-02
 -0.19739151E-02 -0.19229418E-02 -0.18611948E-02 -0.17901899E-02 -0.17113520E-02
 -0.16260161E-02 -0.15354288E-02 -0.14407506E-02 -0.13430575E-02 -0.12433431E-02
 -0.11425212E-02 -0.10414278E-02 -0.94082385E-03 -0.84139766E-03 -0.74376784E-03
 -0.64848592E-03 -0.55603920E-03 -0.46685363E-03 -0.38129677E-03 -0.29968069E-03
 -0.22226495E-03 -0.14925960E-03 -0.80828082E-04 -0.17090215E-04  0.41874890E-04
  0.96025950E-04  0.14535666E-03  0.18989290E-03  0.22969000E-03  0.26483007E-03
  0.29541937E-03  0.32158583E-03  0.34347658E-03  0.36125556E-03  0.37510131E-03
  0.38520474E-03  0.39176709E-03  0.39499791E-03  0.39511322E-03  0.39233369E-03
  0.38688301E-03  0.37898629E-03  0.36886858E-03  0.35675357E-03  0.34286227E-03
  0.32741187E-03  0.31061473E-03  0.29267736E-03  0.27379962E-03  0.25417394E-03
  0.23398462E-03  0.21340733E-03  0.19260856E-03  0.17174522E-03  0.15096434E-03
  0.13040283E-03  0.11018727E-03  0.90433814E-04  0.71248200E-04  0.52725716E-04
  0.34951313E-04  0.17999737E-04  0.19357133E-05 -0.13185822E-04 -0.27319445E-04
 -0.40428934E-04 -0.52486924E-04 -0.63474528E-04 -0.73380942E-04 -0.82203014E-04
 -0.89944804E-04 -0.96617127E-04 -0.10223708E-03 -0.10682757E-03 -0.11041681E-03
 -0.11303787E-03 -0.11472816E-03 -0.11552893E-03 -0.11548484E-03 -0.11464348E-03
 -0.11305485E-03 -0.11077099E-03 -0.10784549E-03 -0.10433312E-03 -0.10028936E-03
 -0.95770073E-04 -0.90831120E-04 -0.85528007E-04 -0.79915568E-04 -0.74047665E-04
 -0.67976900E-04 -0.61754364E-04 -0.55429400E-04 -0.49049388E-04 -0.42659563E-04
 -0.36302842E-04 -0.30019686E-04 -0.23847975E-04 -0.17822910E-04 -0.11976933E-04
 -0.63396730E-05 -0.93790255E-06  0.42044777E-05  0.90664417E-05  0.13629821E-04
  0.17879274E-04  0.21802237E-04  0.25388862E-04  0.28631943E-04  0.31526829E-04
  0.34071326E-04  0.36265589E-04  0.38112005E-04  0.39615071E-04  0.40781259E-04
  0.41618887E-04  0.42137970E-04  0.42350082E-04  0.42268209E-04  0.41906597E-04
  0.41280610E-04  0.40406575E-04  0.39301642E-04  0.37983634E-04  0.36470907E-04
  0.34782213E-04  0.32936562E-04  0.30953093E-04  0.28850954E-04  0.26649175E-04
  0.24366563E-04  0.22021589E-04  0.19632296E-04  0.17216198E-04  0.14790203E-04
  0.12370529E-04  0.99726409E-05  0.76111804E-05  0.52999179E-05  0.30517028E-05
  0.87842485E-06 -0.12090177E-05 -0.32007421E-05 -0.50878988E-05 -0.68626807E-05
 -0.85183277E-05 -0.10049123E-04 -0.11450383E-04 -0.12718444E-04 -0.13850641E-04
 -0.14845282E-04 -0.15701616E-04 -0.16419801E-04 -0.17000860E-04 -0.17446646E-04
 -0.17759790E-04 -0.17943654E-04 -0.18002280E-04 -0.17940340E-04 -0.17763076E-04
 -0.17476247E-04 -0.17086074E-04 -0.16599181E-04 -0.16022535E-04 -0.15363395E-04
 -0.14629250E-04 -0.13827766E-04 -0.12966733E-04 -0.12054006E-04 -0.11097462E-04
 -0.10104943E-04 -0.90842147E-05 -0.80429164E-05 -0.69885223E-05 -0.59283003E-05
 -0.48692750E-05 -0.38181941E-05 -0.27814970E-05 -0.17652870E-05 -0.77530634E-06
  0.18308550E-06  0.11049303E-05  0.19856866E-05  0.28212419E-05  0.36079222E-05
  0.43424979E-05  0.50221873E-05  0.56446571E-05  0.62080198E-05  0.67108293E-05
  0.71520733E-05  0.75311635E-05  0.78479236E-05  0.81025756E-05  0.82957234E-05
  0.84283357E-05  0.85017262E-05  0.85175337E-05  0.84776995E-05  0.83844450E-05
  0.82402479E-05  0.80478175E-05  0.78100699E-05  0.75301026E-05  0.72111691E-05
  0.68566531E-05  0.64700429E-05  0.60549066E-05  0.56148670E-05  0.51535775E-05
  0.46746981E-05  0.41818733E-05  0.36787093E-05  0.31687537E-05  0.26554755E-05
  0.21422463E-05  0.16323226E-05  0.11288303E-05  0.63474908E-06  0.15289961E-06
 -0.31406880E-06 -0.76368868E-06 -0.11936835E-05 -0.16019752E-05 -0.19866907E-05
 -0.23461661E-05 -0.26789504E-05 -0.29838072E-05 -0.32597153E-05 -0.35058678E-05
 -0.37216702E-05 -0.39067368E-05 -0.40608866E-05 -0.41841376E-05 -0.42766999E-05
 -0.43389687E-05 -0.43715157E-05 -0.43750795E-05 -0.43505564E-05 -0.42989892E-05
 -0.42215562E-05 -0.41195599E-05 -0.39944148E-05 -0.38476351E-05 -0.36808225E-05
 -0.34956532E-05 -0.32938654E-05 -0.30772468E-05 -0.28476217E-05 -0.26068390E-05
 -0.23567597E-05 -0.20992455E-05 -0.18361468E-05 -0.15692922E-05 -0.13004773E-05
 -0.10314553E-05 -0.76392709E-06 -0.49953260E-06 -0.23984240E-06  0.13649710E-07
  0.25953362E-06  0.49648905E-06  0.72329094E-06  0.93881410E-06  0.11420372E-05
  0.13320458E-05  0.15080349E-05  0.16693107E-05  0.18152913E-05  0.19455071E-05
  0.20596004E-05  0.21573243E-05  0.22385407E-05  0.23032184E-05  0.23514299E-05
  0.23833476E-05  0.23992406E-05  0.23994695E-05  0.23844818E-05  0.23548068E-05
  0.23110496E-05  0.22538857E-05  0.21840544E-05  0.21023525E-05  0.20096279E-05
  0.19067728E-05  0.17947171E-05  0.16744215E-05  0.15468708E-05  0.14130669E-05
  0.12740226E-05  0.11307549E-05  0.98427839E-06  0.83559945E-06  0.68571006E-06
  0.53558223E-06  0.38616252E-06  0.23836697E-06  0.93076304E-07 -0.48868489E-07
 -0.18667023E-06 -0.31957923E-06 -0.44689661E-06 -0.56797718E-06 -0.68223193E-06
 -0.78913012E-06 -0.88820097E-06 -0.97903491E-06 -0.10612844E-05 -0.11346645E-05
 -0.11989526E-05 -0.12539888E-05 -0.12996744E-05 -0.13359714E-05 -0.13629009E-05
 -0.13805414E-05 -0.13890269E-05 -0.13885446E-05 -0.13793321E-05 -0.13616750E-05
 -0.13359035E-05 -0.13023894E-05 -0.12615429E-05 -0.12138087E-05 -0.11596626E-05
 -0.10996076E-05 -0.10341705E-05 -0.96389768E-06 -0.88935119E-06 -0.81110521E-06
 -0.72974205E-06 -0.64584835E-06 -0.56001142E-06 -0.47281560E-06 -0.38483876E-06
 -0.29664894E-06 -0.20880109E-06 -0.12183400E-06 -0.36267444E-07  0.47400571E-07
  0.12869627E-06  0.20717243E-06  0.28241043E-06  0.35402212E-06  0.42165142E-06
  0.48497573E-06  0.54370701E-06  0.59759275E-06  0.64641662E-06  0.68999886E-06
  0.72819653E-06  0.76090344E-06  0.78804991E-06  0.80960229E-06  0.82556230E-06
  0.83596615E-06  0.84088345E-06  0.84041599E-06  0.83469635E-06  0.82388630E-06
  0.80817514E-06  0.78777784E-06  0.76293316E-06  0.73390152E-06  0.70096300E-06
  0.66441506E-06  0.62457035E-06  0.58175441E-06  0.53630339E-06  0.48856173E-06
  0.43887984E-06  0.38761185E-06  0.33511330E-06  0.28173898E-06  0.22784075E-06
  0.17376547E-06  0.11985297E-06  0.66434166E-07  0.13829207E-07 -0.37654199E-07
 -0.87722397E-07 -0.13609725E-06 -0.18251749E-06 -0.22673992E-06 -0.26854046E-06
 -0.30771514E-06 -0.34408083E-06 -0.37747587E-06 -0.40776065E-06 -0.43481786E-06
 -0.45855276E-06 -0.47889322E-06 -0.49578968E-06 -0.50921488E-06 -0.51916358E-06
 -0.52565205E-06 -0.52871753E-06 -0.52841748E-06 -0.52482881E-06 -0.51804695E-06
 -0.50818488E-06 -0.49537200E-06 -0.47975301E-06 -0.46148669E-06 -0.44074457E-06
 -0.41770964E-06 -0.39257495E-06 -0.36554224E-06 -0.33682048E-06 -0.30662444E-06
 -0.27517326E-06 -0.24268902E-06 -0.20939529E-06 -0.17551576E-06 -0.14127283E-06
 -0.10688633E-06 -0.72572209E-07 -0.38541275E-07 -0.49980502E-08  0.27860355E-07
  0.59845287E-07  0.90777522E-07  0.12048815E-06  0.14881941E-06  0.17562536E-06
  0.20077260E-06  0.22414073E-06  0.24562288E-06  0.26512602E-06  0.28257130E-06
  0.29789414E-06  0.31104440E-06  0.32198637E-06  0.33069863E-06  0.33717394E-06
  0.34141896E-06  0.34345391E-06  0.34331220E-06  0.34103988E-06  0.33669517E-06
  0.33034779E-06  0.32207835E-06  0.31197758E-06  0.30014560E-06  0.28669108E-06
  0.27173045E-06  0.25538697E-06  0.23778989E-06  0.21907350E-06  0.19937620E-06
  0.17883963E-06  0.15760765E-06  0.13582550E-06  0.11363882E-06  0.91192793E-07
  0.68631251E-07  0.46095823E-07  0.23725119E-07  0.16539422E-08 -0.19987455E-07
 -0.41074079E-07 -0.61486849E-07 -0.81113205E-07 -0.99847670E-07 -0.11759234E-06
 -0.13425736E-06 -0.14976126E-06 -0.16403135E-06 -0.17700392E-06 -0.18862452E-06
 -0.19884805E-06 -0.20763890E-06 -0.21497093E-06 -0.22082748E-06 -0.22520128E-06
 -0.22809429E-06 -0.22951753E-06 -0.22949082E-06 -0.22804250E-06 -0.22520906E-06
 -0.22103480E-06 -0.21557139E-06 -0.20887739E-06 -0.20101779E-06 -0.19206348E-06
 -0.18209069E-06 -0.17118044E-06 -0.15941793E-06 -0.14689196E-06 -0.13369432E-06
 -0.11991916E-06 -0.10566236E-06 -0.91020935E-07 -0.76092419E-07 -0.60974244E-07
 -0.45763157E-07 -0.30554642E-07 -0.15442358E-07 -0.51760752E-09  0.14131182E-07
  0.28418939E-07  0.42264407E-07  0.55590568E-07  0.68325031E-07  0.80400389E-07
  0.91754534E-07  0.10233094E-06  0.11207891E-06  0.12095375E-06  0.12891697E-06
  0.13593638E-06  0.14198615E-06  0.14704690E-06  0.15110565E-06  0.15415581E-06
  0.15619710E-06  0.15723541E-06  0.15728269E-06  0.15635674E-06  0.15448099E-06
  0.15168426E-06  0.14800051E-06  0.14346851E-06  0.13813150E-06  0.13203690E-06
  0.12523590E-06  0.11778309E-06  0.10973606E-06  0.10115502E-06  0.92102362E-07
  0.82642232E-07  0.72840134E-07  0.62762487E-07  0.52476209E-07  0.42048300E-07
  0.31545430E-07  0.21033540E-07  0.10577453E-07  0.24049679E-09 -0.99158547E-08
 -0.19832323E-07 -0.29452150E-07 -0.38721394E-07 -0.47589216E-07 -0.56008132E-07
 -0.63934238E-07 -0.71327426E-07 -0.78151551E-07 -0.84374588E-07 -0.89968753E-07
 -0.94910599E-07 -0.99181081E-07 -0.10276560E-06 -0.10565401E-06 -0.10784060E-06
 -0.10932405E-06 -0.11010740E-06 -0.11019788E-06 -0.10960687E-06 -0.10834970E-06
 -0.10644555E-06 -0.10391719E-06 -0.10079084E-06 -0.97095953E-07 -0.92864918E-07
 -0.88132877E-07 -0.82937432E-07 -0.77318383E-07 -0.71317444E-07 -0.64977957E-07
 -0.58344602E-07 -0.51463099E-07 -0.44379913E-07 -0.37141958E-07 -0.29796304E-07
 -0.22389886E-07 -0.14969221E-07 -0.75801309E-08 -0.26747570E-09  0.69251047E-08
  0.13955436E-07  0.20783041E-07  0.27369359E-07  0.33677950E-07  0.39674678E-07
  0.45327884E-07  0.50608536E-07  0.55490363E-07  0.59949970E-07  0.63966931E-07
  0.67523866E-07  0.70606495E-07  0.73203677E-07  0.75307423E-07  0.76912894E-07
  0.78018378E-07  0.78625250E-07  0.78737914E-07  0.78363724E-07  0.77512893E-07
  0.76198382E-07  0.74435779E-07  0.72243158E-07  0.69640933E-07  0.66651690E-07
  0.63300018E-07  0.59612324E-07  0.55616646E-07  0.51342454E-07  0.46820445E-07
  0.42082340E-07  0.37160673E-07  0.32088577E-07  0.26899578E-07  0.21627377E-07
  0.16305649E-07  0.10967833E-07  0.56469365E-08  0.37533572E-09 -0.48154069E-08
 -0.98947242E-08 -0.14833214E-07 -0.19602802E-07 -0.24176888E-07 -0.28530487E-07
 -0.32640357E-07 -0.36485111E-07 -0.40045318E-07 -0.43303595E-07 -0.46244674E-07
 -0.48855465E-07 -0.51125105E-07 -0.53044983E-07 -0.54608763E-07 -0.55812382E-07
 -0.56654044E-07 -0.57134193E-07 -0.57255475E-07 -0.57022690E-07 -0.56442727E-07
 -0.55524492E-07 -0.54278820E-07 -0.52718381E-07 -0.50857574E-07 -0.48712412E-07
 -0.46300402E-07 -0.43640410E-07 -0.40752533E-07 -0.37657950E-07 -0.34378782E-07
 -0.30937940E-07 -0.27358972E-07 -0.23665916E-07 -0.19883138E-07 -0.16035184E-07
 -0.12146628E-07 -0.82419167E-08 -0.43452280E-08 -0.48032520E-09  0.33295812E-08
  0.70619663E-08  0.10695118E-07  0.14208256E-07  0.17581646E-07  0.20796704E-07
  0.23836090E-07  0.26683798E-07  0.29325231E-07  0.31747271E-07  0.33938336E-07
  0.35888427E-07  0.37589165E-07  0.39033821E-07  0.40217328E-07  0.41136291E-07
  0.41788980E-07  0.42175319E-07  0.42296859E-07  0.42156746E-07  0.41759679E-07
  0.41111856E-07  0.40220917E-07  0.39095875E-07  0.37747041E-07  0.36185942E-07
  0.34425233E-07  0.32478606E-07  0.30360685E-07  0.28086930E-07  0.25673529E-07
  0.23137285E-07  0.20495510E-07  0.17765910E-07  0.14966470E-07  0.12115341E-07
  0.92307296E-08  0.63307839E-08  0.34334841E-08  0.55653552E-09 -0.22827347E-08
 -0.50674784E-08 -0.77814217E-08 -0.10408956E-07 -0.12935223E-07 -0.15346197E-07
 -0.17628753E-07 -0.19770741E-07 -0.21761038E-07 -0.23589610E-07 -0.25247549E-07
 -0.26727118E-07 -0.28021777E-07 -0.29126209E-07 -0.30036332E-07 -0.30749310E-07
 -0.31263548E-07 -0.31578691E-07 -0.31695600E-07 -0.31616339E-07 -0.31344137E-07
 -0.30883357E-07 -0.30239453E-07 -0.29418921E-07 -0.28429243E-07 -0.27278830E-07
 -0.25976959E-07 -0.24533701E-07 -0.22959849E-07 -0.21266846E-07 -0.19466702E-07
 -0.17571915E-07 -0.15595389E-07 -0.13550348E-07 -0.11450250E-07 -0.93087074E-08
 -0.71393943E-08 -0.49559684E-08 -0.27719851E-08 -0.60081753E-09  0.15444229E-08
  0.36509626E-08  0.57064388E-08  0.76989695E-08  0.96172188E-08  0.11450459E-07
  0.13188628E-07  0.14822378E-07  0.16343130E-07  0.17743108E-07  0.19015378E-07
  0.20153883E-07  0.21153460E-07  0.22009866E-07  0.22719790E-07  0.23280857E-07
  0.23691635E-07  0.23951627E-07  0.24061264E-07  0.24021886E-07  0.23835729E-07
  0.23505892E-07  0.23036309E-07  0.22431716E-07  0.21697609E-07  0.20840201E-07
  0.19866375E-07  0.18783632E-07  0.17600039E-07  0.16324172E-07  0.14965055E-07
  0.13532100E-07  0.12035048E-07  0.10483899E-07  0.88888541E-08  0.72602455E-08
  0.56084753E-08  0.39439500E-08  0.22770168E-08  0.61790219E-09 -0.10233493E-08
 -0.26369338E-08 -0.42133442E-08 -0.57434248E-08 -0.72184218E-08 -0.86300320E-08
 -0.99704467E-08 -0.11232394E-07 -0.12409173E-07 -0.13494693E-07 -0.14483497E-07
 -0.15370788E-07 -0.16152451E-07 -0.16825071E-07 -0.17385939E-07 -0.17833064E-07
 -0.18165176E-07 -0.18381720E-07 -0.18482856E-07 -0.18469445E-07 -0.18343036E-07
 -0.18105846E-07 -0.17760742E-07 -0.17311211E-07 -0.16761332E-07 -0.16115745E-07
 -0.15379616E-07 -0.14558595E-07 -0.13658780E-07 -0.12686670E-07 -0.11649124E-07
 -0.10553314E-07 -0.94066746E-08 -0.82168576E-08 -0.69916810E-08 -0.57390798E-08
 -0.44670563E-08 -0.31836303E-08 -0.18967903E-08 -0.61444494E-09  0.65562371E-09
  0.19058062E-08  0.31287098E-08  0.43172007E-08  0.54644443E-08  0.65639430E-08
  0.76095715E-08  0.85956095E-08  0.95167714E-08  0.10368233E-07  0.11145656E-07
  0.11845205E-07  0.12463571E-07  0.12997978E-07  0.13446198E-07  0.13806556E-07
  0.14077933E-07  0.14259766E-07  0.14352048E-07  0.14355314E-07  0.14270638E-07
  0.14099616E-07  0.13844353E-07  0.13507440E-07  0.13091933E-07  0.12601334E-07
  0.12039555E-07  0.11410899E-07  0.10720020E-07  0.99718989E-08  0.91718019E-08
  0.83252493E-08  0.74379775E-08  0.65159014E-08  0.55650763E-08  0.45916596E-08
  0.36018719E-08  0.26019581E-08  0.15981499E-08  0.59662694E-09 -0.39651920E-09
 -0.13753216E-08 -0.23339725E-08 -0.32668569E-08 -0.41685845E-08 -0.50340193E-08
 -0.58583087E-08 -0.66369085E-08 -0.73656080E-08 -0.80405506E-08 -0.86582540E-08
 atomic pseudo charge-density
  0.70000000E+01  0.69924858E+01  0.69700205E+01  0.69328344E+01  0.68813043E+01
  0.68159438E+01  0.67373899E+01  0.66463874E+01  0.65437714E+01  0.64304484E+01
  0.63073776E+01  0.61755525E+01  0.60359830E+01  0.58896797E+01  0.57376393E+01
  0.55808324E+01  0.54201934E+01  0.52566119E+01  0.50909269E+01  0.49239221E+01
  0.47563232E+01  0.45887964E+01  0.44219483E+01  0.42563269E+01  0.40924227E+01
  0.39306713E+01  0.37714560E+01  0.36151104E+01  0.34619221E+01  0.33121354E+01
  0.31659549E+01  0.30235486E+01  0.28850510E+01  0.27505664E+01  0.26201712E+01
  0.24939173E+01  0.23718340E+01  0.22539312E+01  0.21402007E+01  0.20306189E+01
  0.19251484E+01  0.18237399E+01  0.17263337E+01  0.16328612E+01  0.15432460E+01
  0.14574055E+01  0.13752518E+01  0.12966924E+01  0.12216317E+01  0.11499712E+01
  0.10816104E+01  0.10164477E+01  0.95438060E+00  0.89530635E+00  0.83912242E+00
  0.78572685E+00  0.73501856E+00  0.68689769E+00  0.64126582E+00  0.59802619E+00
  0.55708390E+00  0.51834603E+00  0.48172180E+00  0.44712263E+00  0.41446225E+00
  0.38365676E+00  0.35462464E+00  0.32728682E+00  0.30156665E+00  0.27738994E+00
  0.25468494E+00  0.23338231E+00  0.21341511E+00  0.19471875E+00  0.17723100E+00
  0.16089189E+00  0.14564370E+00  0.13143089E+00  0.11820010E+00  0.10590002E+00
  0.94481399E-01  0.83896964E-01  0.74101369E-01  0.65051136E-01  0.56704606E-01
  0.49021877E-01  0.41964753E-01  0.35496688E-01  0.29582733E-01  0.24189483E-01
  0.19285026E-01  0.14838892E-01  0.10822002E-01  0.72066235E-02  0.39663196E-02
  0.10759060E-02 -0.14885947E-02 -0.37499960E-02 -0.57299891E-02 -0.74491843E-02
 -0.89271498E-02 -0.10182450E-01 -0.11232684E-01 -0.12094520E-01 -0.12783729E-01
 -0.13315222E-01 -0.13703081E-01 -0.13960591E-01 -0.14100269E-01 -0.14133896E-01
 -0.14072547E-01 -0.13926614E-01 -0.13705839E-01 -0.13419338E-01 -0.13075626E-01
 -0.12682643E-01 -0.12247778E-01 -0.11777891E-01 -0.11279340E-01 -0.10757998E-01
 -0.10219278E-01 -0.96681542E-02 -0.91091796E-02 -0.85465091E-02 -0.79839172E-02
 -0.74248170E-02 -0.68722789E-02 -0.63290482E-02 -0.57975626E-02 -0.52799689E-02
 -0.47781395E-02 -0.42936884E-02 -0.38279864E-02 -0.33821767E-02 -0.29571889E-02
 -0.25537534E-02 -0.21724152E-02 -0.18135472E-02 -0.14773627E-02 -0.11639282E-02
 -0.87317513E-03 -0.60491172E-03 -0.35883381E-03 -0.13453575E-03  0.68479340E-04
  0.25078971E-03  0.41304550E-03  0.55595973E-03  0.68029964E-03  0.78687852E-03
  0.87654787E-03  0.95019002E-03  0.10087112E-02  0.10530347E-02  0.10840952E-02
  0.11028323E-02  0.11101857E-02  0.11070897E-02  0.10944689E-02  0.10732337E-02
  0.10442766E-02  0.10084681E-02  0.96665415E-03  0.91965281E-03  0.86825182E-03
  0.81320638E-03  0.75523714E-03  0.69502862E-03  0.63322785E-03  0.57044325E-03
  0.50724386E-03  0.44415878E-03  0.38167680E-03  0.32024638E-03  0.26027569E-03
  0.20213302E-03  0.14614721E-03  0.92608401E-04  0.41768856E-04 -0.61560273E-05
 -0.50986581E-04 -0.92577602E-04 -0.13081698E-03 -0.16562421E-03 -0.19694886E-03
 -0.22476891E-03 -0.24908910E-03 -0.26993912E-03 -0.28737189E-03 -0.30146172E-03
 -0.31230249E-03 -0.32000581E-03 -0.32469922E-03 -0.32652433E-03 -0.32563505E-03
 -0.32219584E-03 -0.31637994E-03 -0.30836773E-03 -0.29834508E-03 -0.28650179E-03
 -0.27303006E-03 -0.25812306E-03 -0.24197358E-03 -0.22477273E-03 -0.20670872E-03
 -0.18796575E-03 -0.16872295E-03 -0.14915346E-03 -0.12942352E-03 -0.10969175E-03
 -0.90108409E-04 -0.70814832E-04 -0.51942905E-04 -0.33614650E-04 -0.15941880E-04
  0.97405264E-06  0.17042429E-04  0.32183264E-04  0.46327325E-04  0.59416082E-04
  0.71401593E-04  0.82246319E-04  0.91922884E-04  0.10041378E-03  0.10771101E-03
  0.11381571E-03  0.11873768E-03  0.12249496E-03  0.12511325E-03  0.12662546E-03
  0.12707106E-03  0.12649557E-03  0.12494993E-03  0.12248990E-03  0.11917548E-03
  0.11507023E-03  0.11024073E-03  0.10475595E-03  0.98686643E-04  0.92104786E-04
  0.85082998E-04  0.77694005E-04  0.70010116E-04  0.62102723E-04  0.54041830E-04
  0.45895612E-04  0.37730005E-04  0.29608325E-04  0.21590920E-04  0.13734865E-04
  0.60936819E-05 -0.12829004E-05 -0.83491496E-05 -0.15063499E-04 -0.21388680E-04
 -0.27291819E-04 -0.32744505E-04 -0.37722814E-04 -0.42207307E-04 -0.46183000E-04
 -0.49639295E-04 -0.52569891E-04 -0.54972662E-04 -0.56849516E-04 -0.58206224E-04
 -0.59052235E-04 -0.59400470E-04 -0.59267092E-04 -0.58671274E-04 -0.57634942E-04
 -0.56182516E-04 -0.54340641E-04 -0.52137908E-04 -0.49604573E-04 -0.46772279E-04
 -0.43673770E-04 -0.40342614E-04 -0.36812925E-04 -0.33119092E-04 -0.29295520E-04
 -0.25376371E-04 -0.21395325E-04 -0.17385344E-04 -0.13378460E-04 -0.94055632E-05
 -0.54962180E-05 -0.16784877E-05  0.20212220E-05  0.55783023E-05  0.89700628E-05
  0.12175836E-04  0.15177062E-04  0.17957357E-04  0.20502564E-04  0.22800782E-04
  0.24842381E-04  0.26620003E-04  0.28128538E-04  0.29365092E-04  0.30328936E-04
  0.31021442E-04  0.31446007E-04  0.31607962E-04  0.31514467E-04  0.31174408E-04
  0.30598269E-04  0.29798006E-04  0.28786911E-04  0.27579472E-04  0.26191225E-04
  0.24638610E-04  0.22938812E-04  0.21109615E-04  0.19169250E-04  0.17136242E-04
  0.15029261E-04  0.12866981E-04  0.10667934E-04  0.84503804E-05  0.62321745E-05
  0.40306442E-05  0.18624751E-05 -0.25639648E-06 -0.23108821E-05 -0.42868303E-05
 -0.61711067E-05 -0.79516640E-05 -0.96176014E-05 -0.11159215E-04 -0.12568036E-04
 -0.13836860E-04 -0.14959768E-04 -0.15932132E-04 -0.16750614E-04 -0.17413158E-04
 -0.17918965E-04 -0.18268470E-04 -0.18463299E-04 -0.18506228E-04 -0.18401127E-04
 -0.18152902E-04 -0.17767430E-04 -0.17251486E-04 -0.16612670E-04 -0.15859322E-04
 -0.15000443E-04 -0.14045608E-04 -0.13004874E-04 -0.11888696E-04 -0.10707831E-04
 -0.94732514E-05 -0.81960552E-05 -0.68873769E-05 -0.55583019E-05 -0.42197831E-05
 -0.28825604E-05 -0.15570843E-05 -0.25344324E-06  0.10187041E-05  0.22501919E-05
  0.34324047E-05  0.45573293E-05  0.56176012E-05  0.66065439E-05  0.75182034E-05
  0.83473753E-05  0.90896262E-05  0.97413081E-05  0.10299567E-04  0.10762345E-04
  0.11128376E-04  0.11397178E-04  0.11569033E-04  0.11644972E-04  0.11626742E-04
  0.11516783E-04  0.11318185E-04  0.11034653E-04  0.10670462E-04  0.10230409E-04
  0.97197690E-05  0.91442356E-05  0.85098724E-05  0.78230555E-05  0.70904176E-05
  0.63187903E-05  0.55151472E-05  0.46865467E-05  0.38400758E-05  0.29827944E-05
  0.21216820E-05  0.12635854E-05  0.41516919E-06 -0.41713149E-06 -0.12271553E-05
 -0.20090559E-05 -0.27573398E-05 -0.34669008E-05 -0.41330504E-05 -0.47515445E-05
 -0.53186063E-05 -0.58309445E-05 -0.62857681E-05 -0.66807964E-05 -0.70142653E-05
 -0.72849295E-05 -0.74920602E-05 -0.76354395E-05 -0.77153505E-05 -0.77325642E-05
 -0.76883227E-05 -0.75843191E-05 -0.74226746E-05 -0.72059128E-05 -0.69369311E-05
 -0.66189703E-05 -0.62555822E-05 -0.58505951E-05 -0.54080784E-05 -0.49323058E-05
 -0.44277180E-05 -0.38988844E-05 -0.33504657E-05 -0.27871749E-05 -0.22137406E-05
 -0.16348697E-05 -0.10552114E-05 -0.47932269E-06  0.88365189E-07  0.64357823E-06
  0.11822294E-05  0.17004466E-05  0.21945975E-05  0.26613133E-05  0.30975089E-05
  0.35004010E-05  0.38675232E-05  0.41967386E-05  0.44862495E-05  0.47346043E-05
  0.49407016E-05  0.51037912E-05  0.52234733E-05  0.52996938E-05  0.53327378E-05
  0.53232207E-05  0.52720763E-05  0.51805434E-05  0.50501497E-05  0.48826945E-05
  0.46802288E-05  0.44450348E-05  0.41796031E-05  0.38866097E-05  0.35688909E-05
  0.32294191E-05  0.28712759E-05  0.24976271E-05  0.21116958E-05  0.17167366E-05
  0.13160099E-05  0.91275624E-06  0.51017189E-06  0.11138481E-06 -0.28056811E-06
 -0.66276276E-06 -0.10324083E-05 -0.13868659E-05 -0.17236665E-05 -0.20405264E-05
 -0.23353612E-05 -0.26062982E-05 -0.28516866E-05 -0.30701062E-05 -0.32603735E-05
 -0.34215467E-05 -0.35529277E-05 -0.36540634E-05 -0.37247442E-05 -0.37650006E-05
 -0.37750989E-05 -0.37555342E-05 -0.37070221E-05 -0.36304893E-05 -0.35270620E-05
 -0.33980536E-05 -0.32449508E-05 -0.30693989E-05 -0.28731859E-05 -0.26582262E-05
 -0.24265432E-05 -0.21802516E-05 -0.19215393E-05 -0.16526492E-05 -0.13758608E-05
 -0.10934717E-05 -0.80777982E-06 -0.52106544E-06 -0.23557392E-06  0.46500925E-07
  0.32303285E-06  0.59197830E-06  0.85139064E-06  0.10994334E-05  0.13343923E-05
  0.15546863E-05  0.17588773E-05  0.19456785E-05  0.21139616E-05  0.22627623E-05
  0.23912852E-05  0.24989062E-05  0.25851744E-05  0.26498126E-05  0.26927156E-05
  0.27139485E-05  0.27137426E-05  0.26924904E-05  0.26507403E-05  0.25891886E-05
  0.25086721E-05  0.24101587E-05  0.22947374E-05  0.21636081E-05  0.20180699E-05
  0.18595095E-05  0.16893889E-05  0.15092324E-05  0.13206143E-05  0.11251453E-05
  0.92445967E-06  0.72020236E-06  0.51401584E-06  0.30752769E-06  0.10233826E-06
 -0.99991124E-07 -0.29794950E-06 -0.49008694E-06 -0.67502464E-06 -0.85146425E-06
 -0.10181963E-05 -0.11741082E-05 -0.13181904E-05 -0.14495431E-05 -0.15673805E-05
 -0.16710353E-05 -0.17599613E-05 -0.18337354E-05 -0.18920592E-05 -0.19347581E-05
 -0.19617812E-05 -0.19731992E-05 -0.19692015E-05 -0.19500928E-05 -0.19162885E-05
 -0.18683098E-05 -0.18067775E-05 -0.17324055E-05 -0.16459937E-05 -0.15484203E-05
 -0.14406337E-05 -0.13236439E-05 -0.11985135E-05 -0.10663488E-05 -0.92829045E-06
 -0.78550407E-06 -0.63917086E-06 -0.49047826E-06 -0.34061073E-06 -0.19074072E-06
 -0.42019840E-07  0.10442952E-06  0.24752233E-06  0.38621856E-06  0.51953036E-06
  0.64652869E-06  0.76634940E-06  0.87819869E-06  0.98135793E-06  0.10751879E-05
  0.11591321E-05  0.12327198E-05  0.12955680E-05  0.13473825E-05  0.13879592E-05
  0.14171835E-05  0.14350299E-05  0.14415605E-05  0.14369229E-05  0.14213480E-05
  0.13951458E-05  0.13587028E-05  0.13124768E-05  0.12569925E-05  0.11928363E-05
  0.11206506E-05  0.10411280E-05  0.95500518E-06  0.86305628E-06  0.76608647E-06
  0.66492522E-06  0.56041950E-06  0.45342705E-06  0.34480960E-06  0.23542620E-06
  0.12612677E-06  0.17745696E-07 -0.88904232E-07 -0.19303765E-06 -0.29390214E-06
 -0.39078338E-06 -0.48300997E-06 -0.56995775E-06 -0.65105375E-06 -0.72577969E-06
 -0.79367495E-06 -0.85433907E-06 -0.90743376E-06 -0.95268441E-06 -0.98988101E-06
 -0.10188787E-05 -0.10395976E-05 -0.10520226E-05 -0.10562017E-05 -0.10522455E-05
 -0.10403243E-05 -0.10206663E-05 -0.99355476E-06 -0.95932486E-06 -0.91836022E-06
 -0.87108912E-06 -0.81798051E-06 -0.75953971E-06 -0.69630391E-06 -0.62883757E-06
 -0.55772759E-06 -0.48357851E-06 -0.40700758E-06 -0.32863980E-06 -0.24910313E-06
 -0.16902355E-06 -0.89020418E-07 -0.97018281E-08  0.68339806E-07  0.14453198E-06
  0.21832612E-06  0.28920131E-06  0.35666782E-06  0.42027024E-06  0.47959038E-06
  0.53424980E-06  0.58391199E-06  0.62828421E-06  0.66711896E-06  0.70021507E-06
  0.72741845E-06  0.74862243E-06  0.76376777E-06  0.77284229E-06  0.77588014E-06
  0.77296077E-06  0.76420754E-06  0.74978601E-06  0.72990200E-06  0.70479930E-06
  0.67475721E-06  0.64008777E-06  0.60113288E-06  0.55826115E-06  0.51186469E-06
  0.46235571E-06  0.41016305E-06  0.35572868E-06  0.29950409E-06  0.24194669E-06
  0.18351632E-06  0.12467163E-06  0.65866695E-07  0.75476033E-08 -0.49850753E-07
 -0.10590780E-06 -0.16022023E-06 -0.21240475E-06 -0.26210065E-06 -0.30897217E-06
 -0.35271061E-06 -0.39303620E-06 -0.42969975E-06 -0.46248402E-06 -0.49120482E-06
 -0.51571185E-06 -0.53588926E-06 -0.55165599E-06 -0.56296574E-06 -0.56980680E-06
 -0.57220151E-06 -0.57020555E-06 -0.56390695E-06 -0.55342491E-06 -0.53890833E-06
 -0.52053425E-06 -0.49850599E-06 -0.47305120E-06 -0.44441975E-06 -0.41288143E-06
 -0.37872362E-06 -0.34224881E-06 -0.30377206E-06 -0.26361842E-06 -0.22212030E-06
 -0.17961482E-06 -0.13644122E-06 -0.92938246E-07 -0.49441571E-07 -0.62813459E-08
  0.36220228E-07  0.77751197E-07  0.11801205E-06  0.15671777E-06  0.19359977E-06
  0.22840763E-06  0.26091073E-06  0.29089963E-06  0.31818734E-06  0.34261035E-06
  0.36402952E-06  0.38233069E-06  0.39742518E-06  0.40925001E-06  0.41776801E-06
  0.42296766E-06  0.42486277E-06  0.42349194E-06  0.41891795E-06  0.41122681E-06
  0.40052680E-06  0.38694727E-06  0.37063733E-06  0.35176443E-06  0.33051278E-06
  0.30708170E-06  0.28168388E-06  0.25454355E-06  0.22589462E-06  0.19597876E-06
  0.16504344E-06  0.13333995E-06  0.10112149E-06  0.68641207E-07  0.36150251E-07
  0.38959502E-08 -0.27880020E-07 -0.58943373E-07 -0.89068862E-07 -0.11804185E-06
 -0.14565977E-06 -0.17173346E-06 -0.19608839E-06 -0.21856577E-06 -0.23902350E-06
 -0.25733696E-06 -0.27339976E-06 -0.28712418E-06 -0.29844161E-06 -0.30730276E-06
 -0.31367773E-06 -0.31755596E-06 -0.31894599E-06 -0.31787515E-06 -0.31438905E-06
 -0.30855092E-06 -0.30044096E-06 -0.29015539E-06 -0.27780552E-06 -0.26351670E-06
 -0.24742712E-06 -0.22968662E-06 -0.21045535E-06 -0.18990241E-06 -0.16820446E-06
 -0.14554424E-06 -0.12210911E-06 -0.98089586E-07 -0.73677807E-07 -0.49066089E-07
 -0.24445452E-07 -0.41939543E-11  0.24073497E-07  0.47608878E-07  0.70429932E-07
  0.92372570E-07  0.11328177E-06  0.13301260E-06  0.15143121E-06  0.16841567E-06
  0.18385670E-06  0.19765838E-06  0.20973863E-06  0.22002967E-06  0.22847833E-06
  0.23504624E-06  0.23970991E-06  0.24246073E-06  0.24330479E-06  0.24226266E-06
  0.23936901E-06  0.23467217E-06  0.22823355E-06  0.22012704E-06  0.21043822E-06
  0.19926359E-06  0.18670968E-06  0.17289208E-06  0.15793447E-06  0.14196754E-06
  0.12512795E-06  0.10755713E-06  0.89400221E-07  0.70804865E-07  0.51920075E-07
  0.32895073E-07  0.13878150E-07 -0.49844489E-08 -0.23549612E-07 -0.41678414E-07
 -0.59237115E-07 -0.76098116E-07 -0.92140850E-07 -0.10725261E-06 -0.12132931E-06
 -0.13427617E-06 -0.14600829E-06 -0.15645123E-06 -0.16554139E-06 -0.17322637E-06
 -0.17946526E-06 -0.18422875E-06 -0.18749927E-06 -0.18927091E-06 -0.18954938E-06
 -0.18835178E-06 -0.18570634E-06 -0.18165207E-06 -0.17623831E-06 -0.16952425E-06
 -0.16157835E-06 -0.15247766E-06 -0.14230720E-06 -0.13115913E-06 -0.11913203E-06
 -0.10633003E-06 -0.92861916E-07 -0.78840313E-07 -0.64380715E-07 -0.49600587E-07
 -0.34618443E-07 -0.19552918E-07 -0.45218588E-08  0.10358569E-07  0.24974756E-07
  0.39216488E-07  0.52977753E-07  0.66157507E-07  0.78660392E-07  0.90397402E-07
  0.10128649E-06  0.11125313E-06  0.12023078E-06  0.12816134E-06  0.13499544E-06
  0.14069281E-06  0.14522239E-06  0.14856254E-06  0.15070105E-06  0.15163516E-06
  0.15137146E-06  0.14992574E-06  0.14732277E-06  0.14359598E-06  0.13878716E-06
  0.13294600E-06  0.12612963E-06  0.11840213E-06  0.10983390E-06  0.10050111E-06
  0.90485010E-07  0.79871263E-07  0.68749236E-07  0.57211265E-07  0.45351917E-07
  0.33267232E-07  0.21053967E-07  0.88088409E-08 -0.33722127E-08 -0.15394778E-07
 -0.27166669E-07 -0.38598625E-07 -0.49604960E-07 -0.60104199E-07 -0.70019657E-07
 -0.79279986E-07 -0.87819671E-07 -0.95579478E-07 -0.10250685E-06 -0.10855624E-06
 -0.11368939E-06 -0.11787559E-06 -0.12109177E-06 -0.12332267E-06 -0.12456084E-06
 -0.12480663E-06 -0.12406813E-06 -0.12236100E-06 -0.11970827E-06 -0.11614014E-06
 -0.11169362E-06 -0.10641221E-06 -0.10034547E-06 -0.93548608E-07 -0.86081985E-07
 -0.78010591E-07 -0.69403503E-07 -0.60333308E-07 -0.50875506E-07 -0.41107897E-07
 -0.31109955E-07 -0.20962195E-07 -0.10745538E-07 -0.54067884E-09  0.95725367E-08
  0.19515727E-07  0.29212568E-07  0.38589368E-07  0.47575614E-07  0.56104493E-07
  0.64113376E-07  0.71544266E-07  0.78344206E-07  0.84465648E-07  0.89866768E-07
  0.94511747E-07  0.98370988E-07  0.10142129E-06  0.10364599E-06  0.10503500E-06
  0.10558486E-06  0.10529867E-06  0.10418606E-06  0.10226301E-06  0.99551690E-07
  0.96080225E-07  0.91882438E-07  0.86997523E-07  0.81469703E-07  0.75347834E-07
  0.68684992E-07  0.61538020E-07  0.53967051E-07  0.46035019E-07  0.37807137E-07
  0.29350375E-07  0.20732923E-07  0.12023650E-07  0.32915582E-08 -0.53947484E-08
 -0.13967600E-07 -0.22360778E-07 -0.30510018E-07 -0.38353495E-07 -0.45832283E-07
 -0.52890793E-07 -0.59477172E-07 -0.65543682E-07 -0.71047033E-07 -0.75948687E-07
 -0.80215118E-07 -0.83818029E-07 -0.86734535E-07 -0.88947292E-07 -0.90444589E-07
 -0.91220395E-07 -0.91274357E-07 -0.90611759E-07 -0.89243433E-07 -0.87185633E-07
 -0.84459863E-07 -0.81092667E-07 -0.77115385E-07 -0.72563866E-07 -0.67478158E-07
 -0.61902159E-07 -0.55883246E-07 -0.49471880E-07 -0.42721187E-07 -0.35686524E-07
 -0.28425031E-07 -0.20995172E-07 -0.13456269E-07 -0.58680349E-08  0.17098951E-08
   24.7554104503839      T
 Non local Part
           0           2  0.822761192440682     
  -3.76715725881036        6.23614448151379        6.23614448151379     
  -9.65940704683246     
 Reciprocal Space Part
  0.14049099E+02  0.13996368E+02  0.13838635E+02  0.13577281E+02  0.13214595E+02
  0.12753759E+02  0.12198825E+02  0.11554682E+02  0.10827024E+02  0.10022298E+02
  0.91476612E+01  0.82109151E+01  0.72204431E+01  0.61851357E+01  0.51143110E+01
  0.40176277E+01  0.29049926E+01  0.17864624E+01  0.67214108E+00 -0.42792627E+00
 -0.15038619E+01 -0.25460651E+01 -0.35453216E+01 -0.44929107E+01 -0.53807098E+01
 -0.62012926E+01 -0.69480211E+01 -0.76151294E+01 -0.81977964E+01 -0.86922077E+01
 -0.90956040E+01 -0.94063155E+01 -0.96237811E+01 -0.97485519E+01 -0.97822779E+01
 -0.97276788E+01 -0.95884983E+01 -0.93694427E+01 -0.90761046E+01 -0.87148726E+01
 -0.82928287E+01 -0.78176354E+01 -0.72974136E+01 -0.67406140E+01 -0.61558844E+01
 -0.55519350E+01 -0.49374040E+01 -0.43207269E+01 -0.37100106E+01 -0.31129154E+01
 -0.25365475E+01 -0.19873625E+01 -0.14710828E+01 -0.99263023E+00 -0.55607435E+00
 -0.16459760E+00  0.17952231E+00  0.47491295E+00  0.72109086E+00  0.91842916E+00
  0.10681101E+01  0.11720639E+01  0.12328955E+01  0.12538010E+01  0.12384760E+01
  0.11910175E+01  0.11158229E+01  0.10174863E+01  0.90069605E+00  0.77013572E+00
  0.63038888E+00  0.48585153E+00  0.34065255E+00  0.19858413E+00  0.63043147E-01
 -0.63015684E-01 -0.17711430E+00 -0.27727322E+00 -0.36202102E+00 -0.43039171E+00
 -0.48191064E+00 -0.51656989E+00 -0.53479421E+00 -0.53739885E+00 -0.52554067E+00
 -0.50066411E+00 -0.46444363E+00 -0.41872414E+00 -0.36546115E+00 -0.30666202E+00
 -0.24432984E+00 -0.18041107E+00 -0.11674822E+00 -0.55038396E-01  0.32015738E-02
  0.56662845E-01  0.10426487E+00  0.14516817E+00  0.17877979E+00  0.20475161E+00
 Real Space Part
 -0.18147141E+03 -0.18129490E+03 -0.18076607E+03 -0.17988701E+03 -0.17866116E+03
 -0.17709333E+03 -0.17518965E+03 -0.17295752E+03 -0.17040558E+03 -0.16754364E+03
 -0.16438263E+03 -0.16093454E+03 -0.15721232E+03 -0.15322982E+03 -0.14900171E+03
 -0.14454338E+03 -0.13987087E+03 -0.13500078E+03 -0.12995015E+03 -0.12473642E+03
 -0.11937729E+03 -0.11389069E+03 -0.10829462E+03 -0.10260714E+03 -0.96846258E+02
 -0.91029844E+02 -0.85175587E+02 -0.79300914E+02 -0.73422933E+02 -0.67558382E+02
 -0.61723574E+02 -0.55934361E+02 -0.50206093E+02 -0.44553585E+02 -0.38991098E+02
 -0.33532313E+02 -0.28190315E+02 -0.22977591E+02 -0.17906013E+02 -0.12986847E+02
 -0.82307496E+01 -0.36477739E+01  0.75262084E+00  0.49615600E+01  0.89707414E+01
  0.12772423E+02  0.16359409E+02  0.19725037E+02  0.22863168E+02  0.25768168E+02
  0.28434908E+02  0.30858750E+02  0.33035543E+02  0.34961623E+02  0.36633811E+02
  0.38049418E+02  0.39206253E+02  0.40102631E+02  0.40737388E+02  0.41109899E+02
  0.41220094E+02  0.41068478E+02  0.40656158E+02  0.39984865E+02  0.39056975E+02
  0.37875537E+02  0.36444293E+02  0.34767698E+02  0.32850940E+02  0.30699950E+02
  0.28321415E+02  0.25722778E+02  0.22912238E+02  0.19898749E+02  0.16692136E+02
  0.13303714E+02  0.97383972E+01  0.58929839E+01  0.40055972E+01  0.26183641E+01
  0.13587512E+01  0.20235520E+00 -0.83938208E+00 -0.17572344E+01 -0.25438973E+01
 -0.31933150E+01 -0.37006265E+01 -0.40621501E+01 -0.42753531E+01 -0.43388137E+01
 -0.42521824E+01 -0.40161360E+01 -0.36322808E+01 -0.31031162E+01 -0.24337141E+01
 -0.16203515E+01 -0.66153330E+00  0.68177801E-01 -0.10107558E-01  0.00000000E+00
 Reciprocal Space Part
  0.89447909E+01  0.89055426E+01  0.87881425E+01  0.85936222E+01  0.83236940E+01
  0.79807396E+01  0.75677944E+01  0.70885266E+01  0.65472121E+01  0.59487037E+01
  0.52983946E+01  0.46021766E+01  0.38663934E+01  0.30977864E+01  0.23034368E+01
  0.14907007E+01  0.66713973E+00 -0.15955312E+00 -0.98163224E+00 -0.17913813E+01
 -0.25811977E+01 -0.33436792E+01 -0.40717099E+01 -0.47585467E+01 -0.53979027E+01
 -0.59840271E+01 -0.65117811E+01 -0.69767059E+01 -0.73750842E+01 -0.77039922E+01
 -0.79613406E+01 -0.81459055E+01 -0.82573461E+01 -0.82962098E+01 -0.82639239E+01
 -0.81627739E+01 -0.79958681E+01 -0.77670889E+01 -0.74810324E+01 -0.71429353E+01
 -0.67585922E+01 -0.63342634E+01 -0.58765752E+01 -0.53924148E+01 -0.48888210E+01
 -0.43728736E+01 -0.38515827E+01 -0.33317805E+01 -0.28200176E+01 -0.23224658E+01
 -0.18448286E+01 -0.13922625E+01 -0.96930823E+00 -0.57983609E+00 -0.22700348E+00
  0.86772836E-01  0.35983033E+00  0.59125975E+00  0.78089010E+00  0.92926003E+00
  0.10375767E+01  0.11076629E+01  0.11418943E+01  0.11431280E+01  0.11146243E+01
  0.10599634E+01  0.98295938E+00  0.88757231E+00  0.77782210E+00  0.65770431E+00
  0.53111061E+00  0.40175505E+00  0.27310788E+00  0.14833769E+00  0.30263200E-01
 -0.78684872E-01 -0.17649128E+00 -0.26157296E+00 -0.33278509E+00 -0.38941681E+00
 -0.43117720E+00 -0.45817234E+00 -0.47087439E+00 -0.47008390E+00 -0.45688649E+00
 -0.43260539E+00 -0.39875107E+00 -0.35696948E+00 -0.30899021E+00 -0.25657585E+00
 -0.20147381E+00 -0.14537166E+00 -0.89856983E-01 -0.36382383E-01  0.13763552E-01
  0.59479077E-01  0.99865600E-01  0.13423745E+00  0.16212525E+00  0.18327315E+00
 Real Space Part
 -0.14926142E+03 -0.14913025E+03 -0.14873722E+03 -0.14808367E+03 -0.14717190E+03
 -0.14600504E+03 -0.14458715E+03 -0.14292308E+03 -0.14101854E+03 -0.13888002E+03
 -0.13651475E+03 -0.13393067E+03 -0.13113640E+03 -0.12814118E+03 -0.12495480E+03
 -0.12158760E+03 -0.11805037E+03 -0.11435433E+03 -0.11051105E+03 -0.10653242E+03
 -0.10243058E+03 -0.98217871E+02 -0.93906799E+02 -0.89509962E+02 -0.85040018E+02
 -0.80509636E+02 -0.75931451E+02 -0.71318030E+02 -0.66681828E+02 -0.62035162E+02
 -0.57390172E+02 -0.52758802E+02 -0.48152770E+02 -0.43583550E+02 -0.39062353E+02
 -0.34600113E+02 -0.30207473E+02 -0.25894779E+02 -0.21672069E+02 -0.17549070E+02
 -0.13535194E+02 -0.96395348E+01 -0.58708682E+01 -0.22376502E+01  0.12519825E+01
  0.45902135E+01  0.77695472E+01  0.10782811E+02  0.13623159E+02  0.16284074E+02
  0.18759378E+02  0.21043238E+02  0.23130178E+02  0.25015090E+02  0.26693254E+02
  0.28160353E+02  0.29412497E+02  0.30446243E+02  0.31258624E+02  0.31847173E+02
  0.32209958E+02  0.32345605E+02  0.32253333E+02  0.31932985E+02  0.31385057E+02
  0.30610726E+02  0.29611877E+02  0.28391127E+02  0.26951844E+02  0.25298162E+02
  0.23434991E+02  0.21368022E+02  0.19103720E+02  0.16649327E+02  0.14012957E+02
  0.11204111E+02  0.82269791E+01  0.49940825E+01  0.34068124E+01  0.22349937E+01
  0.11638961E+01  0.17393777E+00 -0.72397852E+00 -0.15207495E+01 -0.22088475E+01
 -0.27817722E+01 -0.32340276E+01 -0.35611290E+01 -0.37595969E+01 -0.38269419E+01
 -0.37616477E+01 -0.35631465E+01 -0.32317459E+01 -0.27686097E+01 -0.21772832E+01
 -0.14534521E+01 -0.59488984E+00  0.61345734E-01 -0.90946839E-02  0.00000000E+00
 Non local Part
           1           2  0.822761192440682     
   11.3210669830020       -16.0555808873410       -16.0555808873410     
   22.4496493562910     
 Reciprocal Space Part
  0.00000000E+00  0.89638238E+00  0.17764352E+01  0.26241421E+01  0.34241072E+01
  0.41618485E+01  0.48240726E+01  0.53989249E+01  0.58762095E+01  0.62475745E+01
  0.65066598E+01  0.66492034E+01  0.66731051E+01  0.65784461E+01  0.63674648E+01
  0.60444899E+01  0.56158314E+01  0.50896344E+01  0.44756973E+01  0.37852594E+01
  0.30307629E+01  0.22255945E+01  0.13838128E+01  0.51986596E+00 -0.35169188E+00
 -0.12164816E+01 -0.20605704E+01 -0.28707283E+01 -0.36346645E+01 -0.43412393E+01
 -0.49806475E+01 -0.55445697E+01 -0.60262894E+01 -0.64207749E+01 -0.67247232E+01
 -0.69365683E+01 -0.70564532E+01 -0.70861673E+01 -0.70290528E+01 -0.68898810E+01
 -0.66747041E+01 -0.63906857E+01 -0.60459135E+01 -0.56492005E+01 -0.52098785E+01
 -0.47375888E+01 -0.42420748E+01 -0.37329816E+01 -0.32196653E+01 -0.27110182E+01
 -0.22153106E+01 -0.17400542E+01 -0.12918878E+01 -0.87648799E+00 -0.49850506E+00
 -0.16152474E+00  0.13194439E+00  0.38045887E+00  0.58360514E+00  0.74194295E+00
  0.85692984E+00  0.93082939E+00  0.96660619E+00  0.96781068E+00  0.93845726E+00
  0.88289873E+00  0.80570057E+00  0.71151788E+00  0.60497799E+00  0.49057128E+00
  0.37255244E+00  0.25485407E+00  0.14101406E+00  0.34117790E-01 -0.63244255E-01
 -0.14900326E+00 -0.22162352E+00 -0.28009916E+00 -0.32393715E+00 -0.35312785E+00
 -0.36810470E+00 -0.36969481E+00 -0.35906231E+00 -0.33764653E+00 -0.30709698E+00
 -0.26920716E+00 -0.22584913E+00 -0.17891058E+00 -0.13023607E+00 -0.81573809E-01
 -0.34529187E-01  0.94741198E-02  0.49224732E-01  0.83745545E-01  0.11230699E+00
  0.13443176E+00  0.14989136E+00  0.15869523E+00  0.16107313E+00  0.15745174E+00
 Real Space Part
  0.00000000E+00 -0.33236046E+01 -0.66342244E+01 -0.99189466E+01 -0.13165002E+02
 -0.16359834E+02 -0.19491167E+02 -0.22547074E+02 -0.25516033E+02 -0.28386988E+02
 -0.31149403E+02 -0.33793312E+02 -0.36309355E+02 -0.38688828E+02 -0.40923704E+02
 -0.43006669E+02 -0.44931136E+02 -0.46691267E+02 -0.48281978E+02 -0.49698949E+02
 -0.50938620E+02 -0.51998186E+02 -0.52875593E+02 -0.53569521E+02 -0.54079369E+02
 -0.54405239E+02 -0.54547912E+02 -0.54508827E+02 -0.54290054E+02 -0.53894277E+02
 -0.53324759E+02 -0.52585325E+02 -0.51680332E+02 -0.50614652E+02 -0.49393643E+02
 -0.48023130E+02 -0.46509390E+02 -0.44859126E+02 -0.43079459E+02 -0.41177906E+02
 -0.39162373E+02 -0.37041137E+02 -0.34822839E+02 -0.32516469E+02 -0.30131362E+02
 -0.27677177E+02 -0.25163896E+02 -0.22601803E+02 -0.20001471E+02 -0.17373745E+02
 -0.14729720E+02 -0.12080715E+02 -0.94382458E+01 -0.68139910E+01 -0.42197495E+01
 -0.16673979E+01  0.83116202E+00  0.32640612E+01  0.56195271E+01  0.78859546E+01
  0.10051983E+02  0.12106577E+02  0.14039118E+02  0.15839495E+02  0.17498199E+02
  0.19006426E+02  0.20356179E+02  0.21540363E+02  0.22552894E+02  0.23388789E+02
  0.24044266E+02  0.24516830E+02  0.24805348E+02  0.24910129E+02  0.24832976E+02
  0.24577238E+02  0.24147845E+02  0.23551321E+02  0.22795797E+02  0.21890988E+02
  0.20848168E+02  0.19680125E+02  0.18401090E+02  0.17026663E+02  0.15573708E+02
  0.14060256E+02  0.12505359E+02  0.10928973E+02  0.93517953E+01  0.77951167E+01
  0.62806542E+01  0.48303864E+01  0.34663422E+01  0.22104452E+01  0.10858741E+01
  0.10693564E+00 -0.71133142E+00 -0.10183016E+01 -0.12448517E+00  0.00000000E+00
 Reciprocal Space Part
  0.00000000E+00  0.57863690E+00  0.11450104E+01  0.16871025E+01  0.21933803E+01
  0.26530259E+01  0.30561508E+01  0.33939908E+01  0.36590761E+01  0.38453756E+01
  0.39484095E+01  0.39653297E+01  0.38949666E+01  0.37378406E+01  0.34961387E+01
  0.31736574E+01  0.27757131E+01  0.23090218E+01  0.17815521E+01  0.12023538E+01
  0.58136639E+00 -0.70787267E-01 -0.74301923E+00 -0.14240004E+01 -0.21023857E+01
 -0.27670362E+01 -0.34072326E+01 -0.40128760E+01 -0.45746723E+01 -0.50842963E+01
 -0.55345318E+01 -0.59193863E+01 -0.62341777E+01 -0.64755914E+01 -0.66417089E+01
 -0.67320056E+01 -0.67473205E+01 -0.66897985E+01 -0.65628075E+01 -0.63708319E+01
 -0.61193475E+01 -0.58146785E+01 -0.54638424E+01 -0.50743856E+01 -0.46542138E+01
 -0.42114208E+01 -0.37541199E+01 -0.32902821E+01 -0.28275828E+01 -0.23732617E+01
 -0.19339979E+01 -0.15158023E+01 -0.11239295E+01 -0.76280951E+00 -0.43600124E+00
 -0.14616691E+00  0.10493246E+00  0.31642150E+00  0.48827599E+00  0.62127115E+00
  0.71691474E+00  0.77736720E+00  0.80535137E+00  0.80405446E+00  0.77702489E+00
  0.72806684E+00  0.66113508E+00  0.58023271E+00  0.48931396E+00  0.39219434E+00
  0.29246989E+00  0.19344700E+00  0.98083904E-01  0.89448483E-02 -0.71832886E-01
 -0.14255882E+00 -0.20199638E+00 -0.24935768E+00 -0.28428711E+00 -0.30683452E+00
 -0.31741969E+00 -0.31678924E+00 -0.30596789E+00 -0.28620555E+00 -0.25892203E+00
 -0.22565103E+00 -0.18798503E+00 -0.14752243E+00 -0.10581852E+00 -0.64341144E-01
 -0.24432310E-01  0.12723823E-01  0.46125833E-01  0.74972653E-01  0.98673845E-01
  0.11685268E+00  0.12934244E+00  0.13617641E+00  0.13757236E+00  0.13391230E+00
 Real Space Part
  0.00000000E+00 -0.33376808E+01 -0.66624142E+01 -0.99613274E+01 -0.13221697E+02
 -0.16431021E+02 -0.19577088E+02 -0.22648049E+02 -0.25632477E+02 -0.28519427E+02
 -0.31298493E+02 -0.33959860E+02 -0.36494342E+02 -0.38893430E+02 -0.41149316E+02
 -0.43254926E+02 -0.45203939E+02 -0.46990801E+02 -0.48610734E+02 -0.50059743E+02
 -0.51334608E+02 -0.52432880E+02 -0.53352870E+02 -0.54093631E+02 -0.54654939E+02
 -0.55037272E+02 -0.55241782E+02 -0.55270268E+02 -0.55125149E+02 -0.54809430E+02
 -0.54326677E+02 -0.53680981E+02 -0.52876931E+02 -0.51919582E+02 -0.50814432E+02
 -0.49567388E+02 -0.48184750E+02 -0.46673176E+02 -0.45039674E+02 -0.43291571E+02
 -0.41436502E+02 -0.39482394E+02 -0.37437449E+02 -0.35310130E+02 -0.33109154E+02
 -0.30843477E+02 -0.28522280E+02 -0.26154963E+02 -0.23751125E+02 -0.21320557E+02
 -0.18873219E+02 -0.16419225E+02 -0.13968818E+02 -0.11532347E+02 -0.91202338E+01
 -0.67429407E+01 -0.44109300E+01 -0.21346187E+01  0.75671386E-01  0.22097693E+01
  0.42577164E+01  0.62098327E+01  0.80567882E+01  0.97896787E+01  0.11400105E+02
  0.12880256E+02  0.14222994E+02  0.15421937E+02  0.16471550E+02  0.17367221E+02
  0.18105350E+02  0.18683422E+02  0.19100078E+02  0.19355180E+02  0.19449864E+02
  0.19386592E+02  0.19169176E+02  0.18802806E+02  0.18294062E+02  0.17650900E+02
  0.16882639E+02  0.15999924E+02  0.15014674E+02  0.13940029E+02  0.12790254E+02
  0.11580671E+02  0.10327533E+02  0.90479275E+01  0.77596420E+01  0.64810368E+01
  0.52309037E+01  0.40283255E+01  0.28924937E+01  0.18425732E+01  0.89886897E+00
  0.74129205E-01 -0.61821428E+00 -0.87656930E+00 -0.10707909E+00  0.00000000E+00
 PAW radial sets
         371  0.716670123244029     
(5E20.12)                                
 augmentation charges (non sperical)
 -0.154768725463E+00  0.199154045064E+00  0.117161181707E+00 -0.138952201597E+00  0.199154045064E+00
 -0.257064360564E+00 -0.144859544145E+00  0.172387103373E+00  0.117161181707E+00 -0.144859544145E+00
  0.299794760835E+00 -0.379750918414E+00 -0.138952201597E+00  0.172387103373E+00 -0.379750918414E+00
  0.482645478405E+00
 uccopancies in atom
  0.199999999989E+01  0.000000000000E+00  0.000000000000E+00  0.000000000000E+00  0.000000000000E+00
  0.000000000000E+00  0.000000000000E+00  0.000000000000E+00  0.000000000000E+00  0.000000000000E+00
  0.166666666611E+01  0.000000000000E+00  0.000000000000E+00  0.000000000000E+00  0.000000000000E+00
  0.000000000000E+00
 grid
  0.310118979148E-04  0.320203274698E-04  0.330615486382E-04  0.341366277214E-04  0.352466656944E-04
  0.363927993331E-04  0.375762023785E-04  0.387980867387E-04  0.400597037301E-04  0.413623453586E-04
  0.427073456433E-04  0.440960819818E-04  0.455299765616E-04  0.470104978159E-04  0.485391619281E-04
  0.501175343836E-04  0.517472315738E-04  0.534299224510E-04  0.551673302377E-04  0.569612341914E-04
  0.588134714264E-04  0.607259387955E-04  0.627005948325E-04  0.647394617576E-04  0.668446275487E-04
  0.690182480797E-04  0.712625493277E-04  0.735798296536E-04  0.759724621547E-04  0.784428970958E-04
  0.809936644183E-04  0.836273763307E-04  0.863467299842E-04  0.891545102345E-04  0.920535924941E-04
  0.950469456763E-04  0.981376352366E-04  0.101328826311E-03  0.104623786958E-03  0.108025891506E-03
  0.111538624006E-03  0.115165581804E-03  0.118910479221E-03  0.122777151360E-03  0.126769558030E-03
  0.130891787806E-03  0.135148062211E-03  0.139542740041E-03  0.144080321830E-03  0.148765454460E-03
  0.153602935914E-03  0.158597720198E-03  0.163754922406E-03  0.169079823964E-03  0.174577878036E-03
  0.180254715112E-03  0.186116148766E-03  0.192168181621E-03  0.198417011487E-03  0.204869037710E-03
  0.211530867731E-03  0.218409323845E-03  0.225511450191E-03  0.232844519969E-03  0.240416042883E-03
  0.248233772833E-03  0.256305715858E-03  0.264640138333E-03  0.273245575435E-03  0.282130839884E-03
  0.291305030966E-03  0.300777543856E-03  0.310558079234E-03  0.320656653223E-03  0.331083607645E-03
  0.341849620614E-03  0.352965717465E-03  0.364443282056E-03  0.376294068413E-03  0.388530212779E-03
  0.401164246034E-03  0.414209106533E-03  0.427678153352E-03  0.441585179973E-03  0.455944428405E-03
  0.470770603775E-03  0.486078889380E-03  0.501884962244E-03  0.518205009167E-03  0.535055743302E-03
  0.552454421273E-03  0.570418860847E-03  0.588967459181E-03  0.608119211660E-03  0.627893731351E-03
  0.648311269091E-03  0.669392734223E-03  0.691159716010E-03  0.713634505742E-03  0.736840119568E-03
  0.760800322065E-03  0.785539650574E-03  0.811083440329E-03  0.837457850403E-03  0.864689890496E-03
  0.892807448597E-03  0.921839319544E-03  0.951815234507E-03  0.982765891445E-03  0.101472298653E-02
  0.104771924663E-02  0.108178846279E-02  0.111696552487E-02  0.115328645725E-02  0.119078845574E-02
  0.122950992567E-02  0.126949052120E-02  0.131077118596E-02  0.135339419495E-02  0.139740319787E-02
  0.144284326377E-02  0.148976092725E-02  0.153820423610E-02  0.158822280051E-02  0.163986784385E-02
  0.169319225517E-02  0.174825064331E-02  0.180509939287E-02  0.186379672196E-02  0.192440274175E-02
  0.198697951812E-02  0.205159113514E-02  0.211830376076E-02  0.218718571454E-02  0.225830753761E-02
  0.233174206495E-02  0.240756449991E-02  0.248585249131E-02  0.256668621289E-02  0.265014844543E-02
  0.273632466157E-02  0.282530311326E-02  0.291717492224E-02  0.301203417325E-02  0.310997801046E-02
  0.321110673691E-02  0.331552391726E-02  0.342333648383E-02  0.353465484611E-02  0.364959300382E-02
  0.376826866368E-02  0.389080335994E-02  0.401732257884E-02  0.414795588711E-02  0.428283706467E-02
  0.442210424164E-02  0.456590003978E-02  0.471437171855E-02  0.486767132592E-02  0.502595585408E-02
  0.518938740023E-02  0.535813333255E-02  0.553236646161E-02  0.571226521738E-02  0.589801383189E-02
  0.608980252796E-02  0.628782771397E-02  0.649229218501E-02  0.670340533058E-02  0.692138334898E-02
  0.714644946875E-02  0.737883417726E-02  0.761877545677E-02  0.786651902810E-02  0.812231860233E-02
  0.838643614057E-02  0.865914212226E-02  0.894071582216E-02  0.923144559634E-02  0.953162917749E-02
  0.984157397984E-02  0.101615974139E-01  0.104920272118E-01  0.108332017623E-01  0.111854704581E-01
  0.115491940530E-01  0.119247450319E-01  0.123125079917E-01  0.127128800357E-01  0.131262711797E-01
  0.135531047724E-01  0.139938179287E-01  0.144488619775E-01  0.149187029235E-01  0.154038219249E-01
  0.159047157861E-01  0.164218974661E-01  0.169558966040E-01  0.175072600618E-01  0.180765524837E-01
  0.186643568750E-01  0.192712751987E-01  0.198979289922E-01  0.205449600038E-01  0.212130308497E-01
  0.219028256929E-01  0.226150509436E-01  0.233504359826E-01  0.241097339086E-01  0.248937223088E-01
  0.257032040561E-01  0.265390081303E-01  0.274019904680E-01  0.282930348384E-01  0.292130537489E-01
  0.301629893791E-01  0.311438145463E-01  0.321565337010E-01  0.332021839562E-01  0.342818361492E-01
  0.353965959380E-01  0.365476049342E-01  0.377360418716E-01  0.389631238133E-01  0.402301073986E-01
  0.415382901294E-01  0.428890116990E-01  0.442836553645E-01  0.457236493627E-01  0.472104683734E-01
  0.487456350292E-01  0.503307214749E-01  0.519673509775E-01  0.536571995886E-01  0.554019978608E-01
  0.572035326202E-01  0.590636487956E-01  0.609842513087E-01  0.629673070242E-01  0.650148467644E-01
  0.671289673889E-01  0.693118339421E-01  0.715656818701E-01  0.738928193099E-01  0.762956294539E-01
  0.787765729894E-01  0.813381906195E-01  0.839831056645E-01  0.867140267484E-01  0.895337505733E-01
  0.924451647825E-01  0.954512509188E-01  0.985550874769E-01  0.101759853057E+00  0.105068829618E+00
  0.108485405843E+00  0.112013080603E+00  0.115655466546E+00  0.119416293793E+00  0.123299413760E+00
  0.127308803101E+00  0.131448567781E+00  0.135722947281E+00  0.140136318939E+00  0.144693202434E+00
  0.149398264412E+00  0.154256323267E+00  0.159272354077E+00  0.164451493696E+00  0.169799046015E+00
  0.175320487394E+00  0.181021472273E+00  0.186907838958E+00  0.192985615603E+00  0.199261026382E+00
  0.205740497865E+00  0.212430665596E+00  0.219338380891E+00  0.226470717855E+00  0.233834980625E+00
  0.241438710848E+00  0.249289695408E+00  0.257395974401E+00  0.265765849364E+00  0.274407891781E+00
  0.283330951858E+00  0.292544167588E+00  0.302056974109E+00  0.311879113368E+00  0.322020644091E+00
  0.332491952094E+00  0.343303760910E+00  0.354467142776E+00  0.365993529972E+00  0.377894726525E+00
  0.390182920299E+00  0.402870695480E+00  0.415971045457E+00  0.429497386135E+00  0.443463569667E+00
  0.457883898646E+00  0.472773140750E+00  0.488146543862E+00  0.504019851692E+00  0.520409319893E+00
  0.537331732714E+00  0.554804420183E+00  0.572845275859E+00  0.591472775156E+00  0.610705994260E+00
  0.630564629668E+00  0.651069018359E+00  0.672240158617E+00  0.694099731541E+00  0.716670123244E+00
  0.739974447779E+00  0.764036570810E+00  0.788881134055E+00  0.814533580516E+00  0.841020180542E+00
  0.868368058724E+00  0.896605221681E+00  0.925760586733E+00  0.955864011524E+00  0.986946324589E+00
  0.101903935694E+01  0.105217597463E+01  0.108639011247E+01  0.112171680871E+01  0.115819224099E+01
  0.119585376333E+01  0.123473994443E+01  0.127489060712E+01  0.131634686920E+01  0.135915118550E+01
  0.140334739139E+01  0.144898074763E+01  0.149609798678E+01  0.154474736100E+01  0.159497869151E+01
  0.164684341957E+01  0.170039465920E+01  0.175568725155E+01  0.181277782107E+01  0.187172483348E+01
  0.193258865569E+01  0.199543161755E+01  0.206031807576E+01  0.212731447972E+01  0.219648943960E+01
  0.226791379660E+01  0.234166069552E+01  0.241780565961E+01  0.249642666797E+01  0.257760423539E+01
  0.266142149479E+01  0.274796428236E+01  0.283732122549E+01  0.292958383350E+01  0.302484659134E+01
  0.312320705642E+01  0.322476595845E+01  0.332962730261E+01  0.343789847609E+01  0.354969035802E+01
  0.366511743307E+01  0.378429790865E+01  0.390735383597E+01  0.403441123506E+01  0.416560022379E+01
  0.430105515117E+01
 aepotential
  0.321357268519E+05  0.313846253069E+05  0.306050596025E+05  0.298015016441E+05  0.289784496679E+05
  0.281401248676E+05  0.272907214765E+05  0.264340449567E+05  0.255741410421E+05  0.247143384139E+05
  0.238580188320E+05  0.230082176925E+05  0.221677173252E+05  0.213389801825E+05  0.205242634186E+05
  0.197255055835E+05  0.189443929329E+05  0.181823639202E+05  0.174405986162E+05  0.167200557609E+05
  0.160214750827E+05  0.153453956427E+05  0.146921737957E+05  0.140619991522E+05  0.134549118464E+05
  0.128708192022E+05  0.123095118550E+05  0.117706797737E+05  0.112539253168E+05  0.107587805977E+05
  0.102847137586E+05  0.983114883111E+04  0.939746879000E+04  0.898303169937E+04  0.858717105491E+04
  0.820921262181E+04  0.784847117144E+04  0.750426808798E+04  0.717592442743E+04  0.686276482661E+04
  0.656414135774E+04  0.627939716095E+04  0.600792167917E+04  0.574908761386E+04  0.550232738047E+04
  0.526705360341E+04  0.504273414216E+04  0.482882983272E+04  0.462485066112E+04  0.443030391142E+04
  0.424473289163E+04  0.406769786365E+04  0.389877791024E+04  0.373757190654E+04  0.358370167537E+04
  0.343680416670E+04  0.329653552140E+04  0.316256738101E+04  0.303459182319E+04  0.291231347227E+04
  0.279545075203E+04  0.268374192423E+04  0.257693278545E+04  0.247478301912E+04  0.237707617043E+04
  0.228358473964E+04  0.219411290463E+04  0.210846980054E+04  0.202646334891E+04  0.194793421082E+04
  0.187270483246E+04  0.180062860359E+04  0.173155344907E+04  0.166533911096E+04  0.160185644571E+04
  0.154097472487E+04  0.148257703305E+04  0.142654988783E+04  0.137278324227E+04  0.132117766258E+04
  0.127163354624E+04  0.122405932221E+04  0.117836787632E+04  0.113447508502E+04  0.109230179989E+04
  0.105177284416E+04  0.101281605148E+04  0.975363737934E+03  0.939350499104E+03  0.904715088087E+03
  0.871398113735E+03  0.839344045557E+03  0.808499422381E+03  0.778813207633E+03  0.750237184971E+03
  0.722725093432E+03  0.696232822120E+03  0.670718393689E+03  0.646141939704E+03  0.622464845372E+03
  0.599651120416E+03  0.577665512721E+03  0.556474429424E+03  0.536047151667E+03  0.516352073189E+03
  0.497360881084E+03  0.479045681513E+03  0.461379795271E+03  0.444337783160E+03  0.427895589439E+03
  0.412029529047E+03  0.396717764168E+03  0.381938750605E+03  0.367671938900E+03  0.353898029954E+03
  0.340598048724E+03  0.327754122848E+03  0.315348970017E+03  0.303366032118E+03  0.291789527941E+03
  0.280604102750E+03  0.269795279441E+03  0.259348957140E+03  0.249251661063E+03  0.239490513765E+03
  0.230053029700E+03  0.220927296361E+03  0.212101805745E+03  0.203565548577E+03  0.195307900473E+03
  0.187318650368E+03  0.179587967532E+03  0.172106400623E+03  0.164864866492E+03  0.157854578525E+03
  0.151067114326E+03  0.144494321307E+03  0.138128432934E+03  0.131961816344E+03  0.125987208738E+03
  0.120197666472E+03  0.114586333622E+03  0.109146748092E+03  0.103872554075E+03  0.987577234279E+02
  0.937963412485E+02  0.889827614436E+02  0.843114985839E+02  0.797772795819E+02  0.753749636463E+02
  0.710996334034E+02  0.669464881224E+02  0.629109192868E+02  0.589884415043E+02  0.551747427647E+02
  0.514656158688E+02  0.478570140917E+02  0.443450025651E+02  0.409257783805E+02  0.375956460438E+02
  0.343510346227E+02  0.311884704529E+02  0.281045924209E+02  0.250961360122E+02  0.221599303587E+02
  0.192929032318E+02  0.164920650625E+02  0.137545151963E+02  0.110774347866E+02  0.845808100854E+01
  0.589379197463E+01  0.338197426428E+01  0.920107961015E+00 -0.149426143121E+01 -0.386351994779E+01
 -0.618999658478E+01 -0.847594680805E+01 -0.107235883957E+02 -0.129350600869E+02 -0.151124581987E+02
 -0.172578300186E+02 -0.193731565022E+02 -0.214603845567E+02 -0.235214021717E+02 -0.255580569067E+02
 -0.275721475225E+02 -0.295654292101E+02 -0.315396153696E+02 -0.334963746022E+02 -0.354373368417E+02
 -0.373640898412E+02 -0.392781827313E+02 -0.411811261923E+02 -0.430743891548E+02 -0.449594074508E+02
 -0.468375766532E+02 -0.487102547967E+02 -0.505787651635E+02 -0.524443920602E+02 -0.543083850754E+02
 -0.561719561082E+02 -0.580362808532E+02 -0.599024982985E+02 -0.617717100335E+02 -0.636449815039E+02
 -0.655233395399E+02 -0.674077736211E+02 -0.692992344785E+02 -0.711986344961E+02 -0.731068453928E+02
 -0.750246997744E+02 -0.769529883590E+02 -0.788924603752E+02 -0.808438220964E+02 -0.828077360565E+02
 -0.847848198157E+02 -0.867756449557E+02 -0.887807355799E+02 -0.908005671641E+02 -0.928355647303E+02
 -0.948861014123E+02 -0.969524964515E+02 -0.990350132608E+02 -0.101133856883E+03 -0.103249171811E+03
 -0.105381038703E+03 -0.107529471282E+03 -0.109694412638E+03 -0.111875730782E+03 -0.114073213856E+03
 -0.116286564384E+03 -0.118515392700E+03 -0.120759209307E+03 -0.123017416112E+03 -0.125289296053E+03
 -0.127574001300E+03 -0.129870539432E+03 -0.132177757583E+03 -0.134494324269E+03 -0.136818708518E+03
 -0.139149156474E+03 -0.141483664963E+03 -0.143819952497E+03 -0.146155427712E+03 -0.148487155986E+03
 -0.150811825246E+03 -0.153125712556E+03 -0.155424653964E+03 -0.157704020895E+03 -0.159958707616E+03
 -0.162183135580E+03 -0.164371281917E+03 -0.166516740673E+03 -0.168612826823E+03 -0.170652733866E+03
 -0.172629756130E+03 -0.174537586132E+03 -0.176370694870E+03 -0.178124797710E+03 -0.179797398676E+03
 -0.181388385892E+03 -0.182900620542E+03 -0.184340393332E+03 -0.185717535493E+03 -0.187044826120E+03
 -0.188336193616E+03 -0.189603144976E+03 -0.190849078596E+03 -0.192061906565E+03 -0.193206847071E+03
 -0.194222907370E+03 -0.195027216098E+03 -0.195529525573E+03 -0.195654768652E+03 -0.195366599600E+03
 -0.194682283781E+03 -0.193670937006E+03 -0.192433550599E+03 -0.191072817798E+03 -0.189667174969E+03
 -0.188259988100E+03 -0.186864015849E+03 -0.185473279639E+03 -0.184074371761E+03 -0.182653571661E+03
 -0.181199871869E+03 -0.179705434944E+03 -0.178164928190E+03 -0.176574625745E+03 -0.174931684668E+03
 -0.173233706151E+03 -0.171478545683E+03 -0.169664292146E+03 -0.167789334934E+03 -0.165852459685E+03
 -0.163852938539E+03 -0.161790596663E+03 -0.159665850221E+03 -0.157479720077E+03 -0.155233821409E+03
 -0.152930340086E+03 -0.150571993817E+03 -0.148161988024E+03 -0.145703963626E+03 -0.143201943371E+03
 -0.140660273787E+03 -0.138083567971E+03 -0.135476646239E+03 -0.132844478049E+03 -0.130192123944E+03
 -0.127524678856E+03 -0.124847216149E+03 -0.122164735795E+03 -0.119482108736E+03 -0.116804029940E+03
 -0.114134970835E+03 -0.111479134415E+03 -0.108840415576E+03 -0.106222366197E+03 -0.103628167350E+03
 -0.101060610558E+03 -0.985220907487E+02 -0.960146132522E+02 -0.935398168605E+02 -0.910990138851E+02
 -0.886932464731E+02 -0.863233568120E+02 -0.839900660081E+02 -0.816940559168E+02 -0.794360462854E+02
 -0.772168601891E+02 -0.750374716178E+02 -0.728990308786E+02 -0.708028656319E+02 -0.687504575100E+02
 -0.667433961128E+02 -0.647833136330E+02 -0.628718045238E+02 -0.610103356205E+02 -0.592001531157E+02
 -0.574421937020E+02 -0.557370078366E+02 -0.540847030130E+02 -0.524849137790E+02 -0.509368027943E+02
 -0.494390936841E+02 -0.479901324270E+02 -0.465879703663E+02 -0.452304595031E+02 -0.439153499927E+02
 -0.426403807360E+02 -0.414033562105E+02 -0.402022055498E+02 -0.390350226969E+02 -0.379000887394E+02
 -0.367958790543E+02 -0.357210586397E+02 -0.346744691196E+02 -0.336551105925E+02 -0.326621209372E+02
 -0.316947545568E+02 -0.307523619398E+02 -0.298343709003E+02 -0.289402699555E+02 -0.280695940043E+02
 -0.272219122734E+02 -0.263968183744E+02 -0.255939222557E+02 -0.248128438049E+02 -0.240532078643E+02
 -0.233146404351E+02
 core charge-density
  0.101355665015E-04  0.108035613242E-04  0.115155680452E-04  0.122744851436E-04  0.130834018533E-04
  0.139456107051E-04  0.148646208899E-04  0.158441725010E-04  0.168882517092E-04  0.180011069354E-04
  0.191872660818E-04  0.204515548956E-04  0.217991165350E-04  0.232354324191E-04  0.247663444438E-04
  0.263980786546E-04  0.281372704693E-04  0.299909915540E-04  0.319667784589E-04  0.340726631293E-04
  0.363172054142E-04  0.387095277022E-04  0.412593518242E-04  0.439770383699E-04  0.468736285755E-04
  0.499608889507E-04  0.532513588218E-04  0.567584009825E-04  0.604962556528E-04  0.644800979617E-04
  0.687260991832E-04  0.732514919681E-04  0.780746398319E-04  0.832151111744E-04  0.886937581252E-04
  0.945328005267E-04  0.100755915389E-03  0.107388332169E-03  0.114456934254E-03  0.121990367040E-03
  0.130019153052E-03  0.138575814533E-03  0.147695004009E-03  0.157413643329E-03  0.167771071726E-03
  0.178809203488E-03  0.190572695852E-03  0.203109127776E-03  0.216469190289E-03  0.230706889158E-03
  0.245879760676E-03  0.262049101384E-03  0.279280212644E-03  0.297642660993E-03  0.317210555301E-03
  0.338062841788E-03  0.360283618043E-03  0.383962467261E-03  0.409194813969E-03  0.436082302608E-03
  0.464733200429E-03  0.495262826217E-03  0.527794006501E-03  0.562457560961E-03  0.599392818891E-03
  0.638748168635E-03  0.680681642117E-03  0.725361536619E-03  0.772967076140E-03  0.823689114848E-03
  0.877730885179E-03  0.935308793430E-03  0.996653265726E-03  0.106200964754E-02  0.113163916001E-02
  0.120581991662E-02  0.128484800392E-02  0.136903863013E-02  0.145872734601E-02  0.155427134212E-02
  0.165605082728E-02  0.176447049320E-02  0.187996107026E-02  0.200298098022E-02  0.213401809144E-02
  0.227359158290E-02  0.242225392338E-02  0.258059297279E-02  0.274923421269E-02  0.292884311380E-02
  0.312012764835E-02  0.332384095592E-02  0.354078417146E-02  0.377180942512E-02  0.401782302357E-02
  0.427978882326E-02  0.455873180660E-02  0.485574187242E-02  0.517197785291E-02  0.550867176944E-02
  0.586713334080E-02  0.624875475751E-02  0.665501573687E-02  0.708748887396E-02  0.754784530432E-02
  0.803786069526E-02  0.855942158275E-02  0.911453207218E-02  0.970532092177E-02  0.103340490281E-01
  0.110031173340E-01  0.117150751804E-01  0.124726291231E-01  0.132786522376E-01  0.141361939354E-01
  0.150484903154E-01  0.160189750753E-01  0.170512910082E-01  0.181493021111E-01  0.193171063305E-01
  0.205590489732E-01  0.218797368099E-01  0.232840528979E-01  0.247771721530E-01  0.263645776968E-01
  0.280520780084E-01  0.298458249086E-01  0.317523324028E-01  0.337784964110E-01  0.359316154096E-01
  0.382194120105E-01  0.406500555012E-01  0.432321853668E-01  0.459749358139E-01  0.488879613139E-01
  0.519814631787E-01  0.552662171803E-01  0.587536022198E-01  0.624556300478E-01  0.663849760329E-01
  0.705550109676E-01  0.749798338942E-01  0.796743059286E-01  0.846540850436E-01  0.899356617737E-01
  0.955363957807E-01  0.101474553218E+00  0.107769344811E+00  0.114440964555E+00  0.121510628922E+00
  0.129000616446E+00  0.136934307530E+00  0.145336224304E+00  0.154232070344E+00  0.163648770015E+00
  0.173614507199E+00  0.184158763119E+00  0.195312352942E+00  0.207107460815E+00  0.219577672938E+00
  0.232758008254E+00  0.246684946261E+00  0.261396451448E+00  0.276931993768E+00  0.293332564525E+00
  0.310640687013E+00  0.328900421141E+00  0.348157361275E+00  0.368458626423E+00  0.389852841833E+00
  0.412390111027E+00  0.436121977193E+00  0.461101372822E+00  0.487382556368E+00  0.515021034683E+00
  0.544073469877E+00  0.574597569190E+00  0.606651956426E+00  0.640296023404E+00  0.675589759847E+00
  0.712593560081E+00  0.751368004895E+00  0.791973616818E+00  0.834470587179E+00  0.878918473183E+00
  0.925375863359E+00  0.973900009717E+00  0.102454642505E+01  0.107736844393E+01  0.113241674591E+01
  0.118973884000E+01  0.124937850906E+01  0.131137521373E+01  0.137576345510E+01  0.144257209617E+01
  0.151182364241E+01  0.158353348188E+01  0.165770908646E+01  0.173434917570E+01  0.181344284603E+01
  0.189496866822E+01  0.197889375729E+01  0.206517281956E+01  0.215374718274E+01  0.224454381562E+01
  0.233747434549E+01  0.243243408205E+01  0.252930105808E+01  0.262793509826E+01  0.272817692877E+01
  0.282984734166E+01  0.293274642912E+01  0.303665290411E+01  0.314132352510E+01  0.324649264339E+01
  0.335187189304E+01  0.345715004379E+01  0.356199303820E+01  0.366604423470E+01  0.376892487831E+01
  0.387023482043E+01  0.396955350896E+01  0.406644126838E+01  0.416044088862E+01  0.425107953882E+01
  0.433787102025E+01  0.442031836869E+01  0.449791681338E+01  0.457015709477E+01  0.463652913822E+01
  0.469652607495E+01  0.474964859510E+01  0.479540961045E+01  0.483333919700E+01  0.486298977909E+01
  0.488394150856E+01  0.489580778358E+01  0.489824084310E+01  0.489093736407E+01  0.487364398063E+01
  0.484616263639E+01  0.480835567464E+01  0.476015056521E+01  0.470154416307E+01  0.463260639112E+01
  0.455348323953E+01  0.446439897635E+01  0.436565746879E+01  0.425764252286E+01  0.414081715977E+01
  0.401572176227E+01  0.388297104166E+01  0.374324979734E+01  0.359730746516E+01  0.344595147758E+01
  0.329003948800E+01  0.313047054262E+01  0.296817531422E+01  0.280410554342E+01  0.263922286161E+01
  0.247448719768E+01  0.231084498450E+01  0.214921740560E+01  0.199048891649E+01  0.183549627431E+01
  0.168501828836E+01  0.153976647155E+01  0.140037673167E+01  0.126740220197E+01  0.114130729205E+01
  0.102246306511E+01  0.911144125400E+00  0.807527303814E+00  0.711692492175E+00  0.623625914998E+00
  0.543225905943E+00  0.470310922309E+00  0.404629206370E+00  0.345869327358E+00  0.293670897006E+00
  0.247635001339E+00  0.207334172523E+00  0.172321886007E+00  0.142141579373E+00  0.116335122213E+00
  0.944506031279E-01  0.760492779827E-01  0.607115410273E-01  0.480418212422E-01  0.376723555673E-01
  0.292658394876E-01  0.225169992407E-01  0.171531666753E-01  0.129339666811E-01  0.965024781201E-02
  0.712239920821E-02  0.519820146847E-02  0.375035635297E-02  0.267383105051E-02  0.188313847535E-02
  0.130965710077E-02  0.899073705278E-03  0.609011573233E-03  0.406886469326E-03  0.268014177317E-03
  0.173977347289E-03  0.111246319858E-03  0.700386803728E-04  0.433954749555E-04  0.264480219458E-04
  0.158476636370E-04  0.933113186524E-05  0.539593366026E-05  0.306281223286E-05  0.170547676853E-05
  0.931074974490E-06  0.498046569813E-06  0.260870973853E-06  0.133710911365E-06  0.670190759371E-07
  0.328258424501E-07  0.157001717147E-07  0.732721231137E-08  0.333413381754E-08  0.147805334857E-08
  0.637825046952E-09  0.267699264110E-09  0.109180364074E-09  0.432313371706E-10  0.166035723157E-10
  0.617919034971E-11  0.222614338848E-11  0.775560976412E-12  0.261008428435E-12  0.847593421201E-13
  0.265287837404E-13  0.799335331072E-14  0.231574158325E-14  0.644243146642E-15  0.171885197186E-15
  0.439204696916E-16  0.107331247847E-16  0.250487718368E-17  0.557438649449E-18  0.118109791138E-18
  0.237880416940E-19  0.454672495743E-20  0.823314994127E-21  0.140992877797E-21  0.227931454135E-22
  0.347195728439E-23  0.497357647955E-24  0.668685966378E-25  0.842057534509E-26  0.991074309153E-27
  0.108783974635E-27  0.111105828755E-28  0.105343930081E-29  0.924992023013E-31  0.750315159014E-32
  0.560807086129E-33  0.385210627527E-34  0.242500152791E-35  0.139518123289E-36  0.731460110020E-38
  0.348408020597E-39  0.150306404701E-40  0.585423486479E-42  0.205179262568E-43  0.644895709415E-45
  0.181139730071E-46
 kinetic energy-density
  0.297512616948E+00  0.301284635111E+00  0.305198950911E+00  0.309263022897E+00  0.313482710627E+00
  0.317864926631E+00  0.322416330018E+00  0.327144866527E+00  0.332058115979E+00  0.337164407010E+00
  0.342472712991E+00  0.347992250567E+00  0.353732792023E+00  0.359704742310E+00  0.365919041962E+00
  0.372387131785E+00  0.379121215194E+00  0.386134023590E+00  0.393439034331E+00  0.401050447914E+00
  0.408983198368E+00  0.417253036144E+00  0.425876550506E+00  0.434871223050E+00  0.444255475511E+00
  0.454048724883E+00  0.464271437106E+00  0.474945195161E+00  0.486092760982E+00  0.497738130765E+00
  0.509906655879E+00  0.522625040966E+00  0.535921485593E+00  0.549825805344E+00  0.564369427351E+00
  0.579585597569E+00  0.595509364385E+00  0.612177822123E+00  0.629630220584E+00  0.647907875613E+00
  0.667054771666E+00  0.687116998896E+00  0.708143802710E+00  0.730186798453E+00  0.753300978475E+00
  0.777544320922E+00  0.802978365087E+00  0.829668029766E+00  0.857682249028E+00  0.887093991766E+00
  0.917980428664E+00  0.950423397423E+00  0.984509669347E+00  0.102033099883E+01  0.105798475098E+01
  0.109757407681E+01  0.113920835848E+01  0.118300344962E+01  0.122908226457E+01  0.127757510197E+01
  0.132862015714E+01  0.138236392121E+01  0.143896194845E+01  0.149857872233E+01  0.156138962459E+01
  0.162757995311E+01  0.169734632344E+01  0.177089819661E+01  0.184845647274E+01  0.193025687299E+01
  0.201654892412E+01  0.210759736470E+01  0.220368357672E+01  0.230510602148E+01  0.241218137550E+01
  0.252524623493E+01  0.264465742537E+01  0.277079422551E+01  0.290405899598E+01  0.304487901963E+01
  0.319370816565E+01  0.335102792638E+01  0.351734993927E+01  0.369321727113E+01  0.387920668083E+01
  0.407593057139E+01  0.428403909655E+01  0.450422285665E+01  0.473721497259E+01  0.498379406469E+01
  0.524478677711E+01  0.552107095421E+01  0.581357871047E+01  0.612329979436E+01  0.645128496885E+01
  0.679865003685E+01  0.716657961151E+01  0.755633126252E+01  0.796924026566E+01  0.840672401754E+01
  0.887028706157E+01  0.936152695600E+01  0.988213851341E+01  0.104339213878E+02  0.110187850423E+02
  0.116387560257E+02  0.122959848528E+02  0.129927532175E+02  0.137314820578E+02  0.145147395094E+02
  0.153452500160E+02  0.162259031480E+02  0.171597633934E+02  0.181500808886E+02  0.192003011217E+02
  0.203140775881E+02  0.214952827258E+02  0.227480213404E+02  0.240766430964E+02  0.254857572314E+02
  0.269802468640E+02  0.285652841953E+02  0.302463474161E+02  0.320292370603E+02  0.339200941051E+02
  0.359254189779E+02  0.380520905077E+02  0.403073871604E+02  0.426990080624E+02  0.452350953996E+02
  0.479242586668E+02  0.507755976947E+02  0.537987296142E+02  0.570038144295E+02  0.604015832775E+02
  0.640033665885E+02  0.678211241048E+02  0.718674762675E+02  0.761557360009E+02  0.806999393724E+02
  0.855148850321E+02  0.906161633842E+02  0.960201972254E+02  0.101744275684E+03  0.107806594727E+03
  0.114226293368E+03  0.121023495518E+03  0.128219348232E+03  0.135836063794E+03  0.143896959403E+03
  0.152426499122E+03  0.161450335591E+03  0.170995348900E+03  0.181089690020E+03  0.191762818876E+03
  0.203045543215E+03  0.214970057481E+03  0.227569977239E+03  0.240880373850E+03  0.254937805311E+03
  0.269780344612E+03  0.285447603628E+03  0.301980754275E+03  0.319422543160E+03  0.337817301423E+03
  0.357210948373E+03  0.377650987241E+03  0.399186493445E+03  0.421868092941E+03  0.445747931344E+03
  0.470879630667E+03  0.497318234536E+03  0.525120139282E+03  0.554343008752E+03  0.585045675325E+03
  0.617288019567E+03  0.651130832579E+03  0.686635658537E+03  0.723864605856E+03  0.762880150406E+03
  0.803744892482E+03  0.846521301913E+03  0.891271421848E+03  0.938056554248E+03  0.986936890483E+03
  0.103797113593E+04  0.109121606636E+04  0.114672607575E+04  0.120455265883E+04  0.126474387613E+04
  0.132734375359E+04  0.139239166576E+04  0.145992165101E+04  0.152996170368E+04  0.160253301617E+04
  0.167764917338E+04  0.175531532530E+04  0.183552730051E+04  0.191827070391E+04  0.200351997191E+04
  0.209123740426E+04  0.218137217948E+04  0.227385934727E+04  0.236861882378E+04  0.246555438078E+04
  0.256455264850E+04  0.266548214826E+04  0.276819234656E+04  0.287251277186E+04  0.297825218567E+04
  0.308519783945E+04  0.319311482310E+04  0.330174553572E+04  0.341080928594E+04  0.352000205278E+04
  0.362899641783E+04  0.373744170282E+04  0.384496431885E+04  0.395116836436E+04  0.405563648088E+04
  0.415793099196E+04  0.425759534594E+04  0.435415587103E+04  0.444712386825E+04  0.453599804413E+04
  0.462026729360E+04  0.469941384181E+04  0.477291673327E+04  0.484025567103E+04  0.490091518798E+04
  0.495438913086E+04  0.500018543357E+04  0.503783114278E+04  0.506687765525E+04  0.508690611861E+04
  0.509753293628E+04  0.509841531257E+04  0.508925676568E+04  0.506981252803E+04  0.503989474859E+04
  0.499937740725E+04  0.494820084370E+04  0.488637580643E+04  0.481398691821E+04  0.473119546379E+04
  0.463824140019E+04  0.453544449923E+04  0.442320453791E+04  0.430200045836E+04  0.417238843470E+04
  0.403499879492E+04  0.389053176391E+04  0.373975201215E+04  0.358348201841E+04  0.342259427744E+04
  0.325800241380E+04  0.309065129383E+04  0.292150625957E+04  0.275154164781E+04  0.258172879118E+04
  0.241302374530E+04  0.224635500034E+04  0.208261153208E+04  0.192263151052E+04  0.176719209306E+04
  0.161700071685E+04  0.147268830106E+04  0.133480465977E+04  0.120381616091E+04  0.108010521481E+04
  0.963970634847E+03  0.855627572660E+03  0.755205986828E+03  0.662747627381E+03  0.578202936416E+03
  0.501430281759E+03  0.432199876488E+03  0.370203465535E+03  0.315068868721E+03  0.266376769472E+03
  0.223676776182E+03  0.186500888634E+03  0.154374081128E+03  0.126822683754E+03  0.103381363758E+03
  0.835991881209E+02  0.670449105481E+02  0.533114410655E+02  0.420194096634E+02  0.328197631303E+02
  0.253953863682E+02  0.194617901126E+02  0.147669469287E+02  0.110903851106E+02  0.824166705890E+01
  0.605838667408E+01  0.440382074225E+01  0.316436348624E+01  0.224686255238E+01  0.157595984557E+01
  0.109152313964E+01  0.746235513706E+00  0.503390695640E+00  0.334924398150E+00  0.219695615346E+00
  0.142018216907E+00  0.904323818830E-01  0.566975341768E-01  0.349833403620E-01  0.212326982023E-01
  0.126700640398E-01  0.742946862680E-02  0.427868217401E-02  0.241877653158E-02  0.134142629680E-02
  0.729401468102E-03  0.388624142914E-03  0.202759730641E-03  0.103523382003E-03  0.516899754005E-04
  0.252221218985E-04  0.120185014301E-04  0.558840416444E-05  0.253371976783E-05  0.111922124505E-05
  0.481284328704E-06  0.201300986444E-06  0.818212893709E-07  0.322900143929E-07  0.123607251952E-07
  0.458534795576E-08  0.164671391527E-08  0.571915524705E-09  0.191888405596E-09  0.621281190431E-10
  0.193889105973E-10  0.582546222607E-11  0.168301299372E-11  0.466954500543E-12  0.124257486128E-12
  0.316696079721E-13  0.772015326700E-14  0.179739057999E-14  0.399062750029E-15  0.843624537509E-16
  0.169539663145E-16  0.323362456325E-17  0.584336279203E-18  0.998679409736E-19  0.161135025113E-19
  0.244985277475E-20  0.350296656289E-21  0.470122661185E-22  0.590978049902E-23  0.694374741597E-24
  0.760898944628E-25  0.775868849868E-26  0.734453473759E-27  0.643885727796E-28  0.521485401370E-29
  0.389179494481E-30  0.266920481098E-31  0.167784049718E-32  0.963897162823E-34  0.504611304175E-35
  0.240006949509E-36  0.103391219273E-37  0.402110845946E-39  0.140726250141E-40  0.441662891488E-42
  0.123869834582E-43
 mkinetic energy-density pseudized
  0.118955402101E-07  0.126817449899E-07  0.135199119285E-07  0.144134753294E-07  0.153660964778E-07
  0.163816786414E-07  0.174643830648E-07  0.186186460187E-07  0.198491969780E-07  0.211610779995E-07
  0.225596643818E-07  0.240506866899E-07  0.256402542353E-07  0.273348801088E-07  0.291415078666E-07
  0.310675399813E-07  0.331208681727E-07  0.353099057428E-07  0.376436220493E-07  0.401315792557E-07
  0.427839715120E-07  0.456116667236E-07  0.486262510818E-07  0.518400765370E-07  0.552663114091E-07
  0.589189943437E-07  0.628130918339E-07  0.669645595439E-07  0.713904076855E-07  0.761087707158E-07
  0.811389816412E-07  0.865016512323E-07  0.922187524742E-07  0.983137105986E-07  0.104811499066E-06
  0.111738741892E-06  0.119123822736E-06  0.126997001200E-06  0.135390536815E-06  0.144338821220E-06
  0.153878519078E-06  0.164048718303E-06  0.174891090225E-06  0.186450060327E-06  0.198772990275E-06
  0.211910371979E-06  0.225916034475E-06  0.240847364487E-06  0.256765541558E-06  0.273735788727E-06
  0.291827639777E-06  0.311115224134E-06  0.331677570609E-06  0.353598931207E-06  0.376969126339E-06
  0.401883912848E-06  0.428445376364E-06  0.456762349583E-06  0.486950858200E-06  0.519134596300E-06
  0.553445433186E-06  0.590023953693E-06  0.629020034212E-06  0.670593456790E-06  0.714914563811E-06
  0.762164955952E-06  0.812538236263E-06  0.866240803422E-06  0.923492697426E-06  0.984528501169E-06
  0.104959830160E-05  0.111896871442E-05  0.119292397649E-05  0.127176711044E-05  0.135582116623E-05
  0.144543054484E-05  0.154096240933E-05  0.164280818921E-05  0.175138518432E-05  0.186713827453E-05
  0.199054174258E-05  0.212210121737E-05  0.226235574559E-05  0.241188000039E-05  0.257128663592E-05
  0.274122879750E-05  0.292240279775E-05  0.311555096949E-05  0.332146470722E-05  0.354098770964E-05
  0.377501943638E-05  0.402451879326E-05  0.429050806102E-05  0.457407708377E-05  0.487638773413E-05
  0.519867867360E-05  0.554227042732E-05  0.590857079440E-05  0.629908061565E-05  0.671539992251E-05
  0.715923449229E-05  0.763240283669E-05  0.813684365196E-05  0.867462376156E-05  0.924794658356E-05
  0.985916115756E-05  0.105107717682E-04  0.112054482043E-04  0.119460366965E-04  0.127355715767E-04
  0.135772877086E-04  0.144746337394E-04  0.154312862271E-04  0.164511647008E-04  0.175384477166E-04
  0.186975899741E-04  0.199333405632E-04  0.212507624174E-04  0.226552530511E-04  0.241525666678E-04
  0.257488377278E-04  0.274506060737E-04  0.292648437146E-04  0.311989833801E-04  0.332609489599E-04
  0.354591879538E-04  0.378027060649E-04  0.403011040776E-04  0.429646171700E-04  0.458041568232E-04
  0.488313554968E-04  0.520586142552E-04  0.554991535369E-04  0.591670672762E-04  0.630773805969E-04
  0.672461113144E-04  0.716903354967E-04  0.764282573513E-04  0.814792837246E-04  0.868641035156E-04
  0.926047723292E-04  0.987248027132E-04  0.105249260346E-03  0.112204866571E-03  0.119620107682E-03
  0.127525351427E-03  0.135952971180E-03  0.144937478299E-03  0.154515663208E-03  0.164726745768E-03
  0.175612535553E-03  0.187217602683E-03  0.199589459895E-03  0.212778756606E-03  0.226839485733E-03
  0.241829204127E-03  0.257809267490E-03  0.274845080742E-03  0.293006364833E-03  0.312367441080E-03
  0.333007534168E-03  0.355011095044E-03  0.378468144975E-03  0.403474642175E-03  0.430132872445E-03
  0.458551865399E-03  0.488847837922E-03  0.521144666640E-03  0.555574391257E-03  0.592277750769E-03
  0.631404754661E-03  0.673115291351E-03  0.717579776255E-03  0.764979842030E-03  0.815509073684E-03
  0.869373791411E-03  0.926793884201E-03  0.988003697436E-03  0.105325297790E-02  0.112280787983E-02
  0.119695203579E-02  0.127598769660E-02  0.136023694437E-02  0.145004298340E-02  0.154577151378E-02
  0.164781219253E-02  0.175658018800E-02  0.187251783295E-02  0.199609638243E-02  0.212781788274E-02
  0.226821715805E-02  0.241786392186E-02  0.257736502041E-02  0.274736681593E-02  0.292855771772E-02
  0.312167086959E-02  0.332748700244E-02  0.354683746122E-02  0.378060741597E-02  0.402973926680E-02
  0.429523625318E-02  0.457816627840E-02  0.487966596003E-02  0.520094491781E-02  0.554329031063E-02
  0.590807163430E-02  0.629674579220E-02  0.671086245080E-02  0.715206969217E-02  0.762211997542E-02
  0.812287641879E-02  0.865631941378E-02  0.922455358207E-02  0.982981508532E-02  0.104744792968E-01
  0.111610688426E-01  0.118922620186E-01  0.126709015871E-01  0.135000039552E-01  0.143827687331E-01
  0.153225886679E-01  0.163230599432E-01  0.173879928321E-01  0.185214226815E-01  0.197276212025E-01
  0.210111080320E-01  0.223766625214E-01  0.238293356968E-01  0.253744623259E-01  0.270176730074E-01
  0.287649061880E-01  0.306224199884E-01  0.325968037027E-01  0.346949888078E-01  0.369242592944E-01
  0.392922610993E-01  0.418070103821E-01  0.444769003532E-01  0.473107063115E-01  0.503175885034E-01
  0.535070923577E-01  0.568891455888E-01  0.604740515930E-01  0.642724784852E-01  0.682954430398E-01
  0.725542887080E-01  0.770606567826E-01  0.818264496717E-01  0.868637851254E-01  0.921849401318E-01
  0.978022830634E-01  0.103728192514E+00  0.109974961112E+00  0.116554682454E+00  0.123479119128E+00
  0.130759549660E+00  0.138406592064E+00  0.146430001516E+00  0.154838439607E+00  0.163639212462E+00
  0.172837975043E+00  0.182438398882E+00  0.192441800614E+00  0.202846728802E+00  0.213648506844E+00
  0.224838730166E+00  0.236404716471E+00  0.248328908663E+00  0.260588231097E+00  0.273153401195E+00
  0.285988200207E+00  0.299048709049E+00  0.312282517832E+00  0.325627920885E+00  0.339013112938E+00
  0.352355406653E+00  0.365560497020E+00  0.378521804163E+00  0.391119933044E+00  0.403222296223E+00
  0.414682954210E+00  0.425342736953E+00  0.435029719275E+00  0.443560132325E+00  0.450739801794E+00
  0.456366211000E+00  0.460231291994E+00  0.462125049378E+00  0.461840117801E+00  0.459177343265E+00
  0.453952457886E+00  0.446003884892E+00  0.435201662067E+00  0.421457404082E+00  0.404735133483E+00
  0.385062692870E+00  0.362543304094E+00  0.337366661982E+00  0.309818740446E+00  0.280289250824E+00
  0.249275433711E+00  0.217380600224E+00  0.185305589049E+00  0.153831104465E+00  0.123788793825E+00
  0.960189712284E-01  0.713131742297E-01  0.503403444538E-01  0.335564558204E-01  0.210989853897E-01
  0.126698338417E-01  0.742946862680E-02  0.427868217401E-02  0.241877653158E-02  0.134142629680E-02
  0.729401468102E-03  0.388624142914E-03  0.202759730641E-03  0.103523382003E-03  0.516899754005E-04
  0.252221218985E-04  0.120185014301E-04  0.558840416444E-05  0.253371976783E-05  0.111922124505E-05
  0.481284328704E-06  0.201300986444E-06  0.818212893709E-07  0.322900143929E-07  0.123607251952E-07
  0.458534795576E-08  0.164671391527E-08  0.571915524705E-09  0.191888405596E-09  0.621281190431E-10
  0.193889105973E-10  0.582546222607E-11  0.168301299372E-11  0.466954500543E-12  0.124257486128E-12
  0.316696079721E-13  0.772015326700E-14  0.179739057999E-14  0.399062750029E-15  0.843624537509E-16
  0.169539663145E-16  0.323362456325E-17  0.584336279203E-18  0.998679409736E-19  0.161135025113E-19
  0.244985277475E-20  0.350296656289E-21  0.470122661185E-22  0.590978049902E-23  0.694374741597E-24
  0.760898944628E-25  0.775868849868E-26  0.734453473759E-27  0.643885727796E-28  0.521485401370E-29
  0.389179494481E-30  0.266920481098E-31  0.167784049718E-32  0.963897162823E-34  0.504611304175E-35
  0.240006949509E-36  0.103391219273E-37  0.402110845946E-39  0.140726250141E-40  0.441662891488E-42
  0.123869834582E-43
 local pseudopotential core
 -0.304943909847E+03 -0.304945869649E+03 -0.304947767729E+03 -0.304949606029E+03 -0.304951386434E+03
 -0.304953110765E+03 -0.304954780788E+03 -0.304956398216E+03 -0.304957964702E+03 -0.304959481851E+03
 -0.304960951217E+03 -0.304962374305E+03 -0.304963752572E+03 -0.304965087429E+03 -0.304966380243E+03
 -0.304967632338E+03 -0.304968844997E+03 -0.304970019460E+03 -0.304971156930E+03 -0.304972258573E+03
 -0.304973325516E+03 -0.304974358851E+03 -0.304975359637E+03 -0.304976328899E+03 -0.304977267628E+03
 -0.304978176786E+03 -0.304979057303E+03 -0.304979910082E+03 -0.304980735995E+03 -0.304981535887E+03
 -0.304982310578E+03 -0.304983060860E+03 -0.304983787502E+03 -0.304984491247E+03 -0.304985172816E+03
 -0.304985832906E+03 -0.304986472192E+03 -0.304987091329E+03 -0.304987690951E+03 -0.304988271670E+03
 -0.304988834081E+03 -0.304989378759E+03 -0.304989906262E+03 -0.304990417128E+03 -0.304990911881E+03
 -0.304991391025E+03 -0.304991855051E+03 -0.304992304434E+03 -0.304992739631E+03 -0.304993161089E+03
 -0.304993569236E+03 -0.304993964491E+03 -0.304994347256E+03 -0.304994717923E+03 -0.304995076868E+03
 -0.304995424459E+03 -0.304995761049E+03 -0.304996086982E+03 -0.304996402589E+03 -0.304996708191E+03
 -0.304997004100E+03 -0.304997290615E+03 -0.304997568028E+03 -0.304997836621E+03 -0.304998096665E+03
 -0.304998348424E+03 -0.304998592152E+03 -0.304998828096E+03 -0.304999056493E+03 -0.304999277574E+03
 -0.304999491561E+03 -0.304999698669E+03 -0.304999899104E+03 -0.305000093068E+03 -0.305000280753E+03
 -0.305000462346E+03 -0.305000638027E+03 -0.305000807970E+03 -0.305000972341E+03 -0.305001131301E+03
 -0.305001285006E+03 -0.305001433604E+03 -0.305001577238E+03 -0.305001716047E+03 -0.305001850162E+03
 -0.305001979710E+03 -0.305002104812E+03 -0.305002225583E+03 -0.305002342135E+03 -0.305002454572E+03
 -0.305002562995E+03 -0.305002667499E+03 -0.305002768175E+03 -0.305002865106E+03 -0.305002958374E+03
 -0.305003048053E+03 -0.305003134213E+03 -0.305003216919E+03 -0.305003296231E+03 -0.305003372203E+03
 -0.305003444886E+03 -0.305003514324E+03 -0.305003580554E+03 -0.305003643612E+03 -0.305003703525E+03
 -0.305003760316E+03 -0.305003814000E+03 -0.305003864590E+03 -0.305003912090E+03 -0.305003956497E+03
 -0.305003997805E+03 -0.305004035997E+03 -0.305004071053E+03 -0.305004102944E+03 -0.305004131631E+03
 -0.305004157073E+03 -0.305004179215E+03 -0.305004197996E+03 -0.305004213347E+03 -0.305004225187E+03
 -0.305004233428E+03 -0.305004237968E+03 -0.305004238699E+03 -0.305004235496E+03 -0.305004228226E+03
 -0.305004216740E+03 -0.305004200879E+03 -0.305004180467E+03 -0.305004155312E+03 -0.305004125210E+03
 -0.305004089935E+03 -0.305004049247E+03 -0.305004002885E+03 -0.305003950567E+03 -0.305003891992E+03
 -0.305003826833E+03 -0.305003754741E+03 -0.305003675341E+03 -0.305003588228E+03 -0.305003492972E+03
 -0.305003389110E+03 -0.305003276144E+03 -0.305003153544E+03 -0.305003020741E+03 -0.305002877127E+03
 -0.305002722051E+03 -0.305002554818E+03 -0.305002374684E+03 -0.305002180854E+03 -0.305001972480E+03
 -0.305001748654E+03 -0.305001508408E+03 -0.305001250708E+03 -0.305000974449E+03 -0.305000678453E+03
 -0.305000361461E+03 -0.305000022130E+03 -0.304999659026E+03 -0.304999270621E+03 -0.304998855283E+03
 -0.304998411269E+03 -0.304997936724E+03 -0.304997429664E+03 -0.304996887977E+03 -0.304996309406E+03
 -0.304995691548E+03 -0.304995031837E+03 -0.304994327536E+03 -0.304993575727E+03 -0.304992773299E+03
 -0.304991916931E+03 -0.304991003085E+03 -0.304990027984E+03 -0.304988987603E+03 -0.304987877650E+03
 -0.304986693545E+03 -0.304985430406E+03 -0.304984083028E+03 -0.304982645857E+03 -0.304981112974E+03
 -0.304979478065E+03 -0.304977734397E+03 -0.304975874790E+03 -0.304973891588E+03 -0.304971776626E+03
 -0.304969521199E+03 -0.304967116019E+03 -0.304964551186E+03 -0.304961816140E+03 -0.304958899620E+03
 -0.304955789615E+03 -0.304952473317E+03 -0.304948937066E+03 -0.304945166294E+03 -0.304941145461E+03
 -0.304936857995E+03 -0.304932286219E+03 -0.304927411280E+03 -0.304922213065E+03 -0.304916670122E+03
 -0.304910759568E+03 -0.304904456990E+03 -0.304897736345E+03 -0.304890569848E+03 -0.304882927859E+03
 -0.304874778747E+03 -0.304866088767E+03 -0.304856821909E+03 -0.304846939745E+03 -0.304836401265E+03
 -0.304825162702E+03 -0.304813177342E+03 -0.304800395320E+03 -0.304786763407E+03 -0.304772224775E+03
 -0.304756718751E+03 -0.304740180550E+03 -0.304722540988E+03 -0.304703726178E+03 -0.304683657198E+03
 -0.304662249743E+03 -0.304639413741E+03 -0.304615052949E+03 -0.304589064518E+03 -0.304561338516E+03
 -0.304531757431E+03 -0.304500195620E+03 -0.304466518728E+03 -0.304430583054E+03 -0.304392234875E+03
 -0.304351309710E+03 -0.304307631532E+03 -0.304261011914E+03 -0.304211249106E+03 -0.304158127046E+03
 -0.304101414276E+03 -0.304040862786E+03 -0.303976206748E+03 -0.303907161155E+03 -0.303833420346E+03
 -0.303754656397E+03 -0.303670517387E+03 -0.303580625512E+03 -0.303484575033E+03 -0.303381930051E+03
 -0.303272222085E+03 -0.303154947442E+03 -0.303029564351E+03 -0.302895489841E+03 -0.302752096348E+03
 -0.302598708015E+03 -0.302434596657E+03 -0.302258977369E+03 -0.302071003735E+03 -0.301869762603E+03
 -0.301654268393E+03 -0.301423456894E+03 -0.301176178494E+03 -0.300911190818E+03 -0.300627150699E+03
 -0.300322605449E+03 -0.299995983361E+03 -0.299645583393E+03 -0.299269563969E+03 -0.298865930848E+03
 -0.298432523995E+03 -0.297967003399E+03 -0.297466833802E+03 -0.296929268273E+03 -0.296351330621E+03
 -0.295729796609E+03 -0.295061173987E+03 -0.294341681367E+03 -0.293567226001E+03 -0.292733380568E+03
 -0.291835359143E+03 -0.290867992546E+03 -0.289825703411E+03 -0.288702481356E+03 -0.287491858806E+03
 -0.286186888135E+03 -0.284780120983E+03 -0.283263590821E+03 -0.281628800083E+03 -0.279866713474E+03
 -0.277967759436E+03 -0.275921842148E+03 -0.273718366930E+03 -0.271346282466E+03 -0.268794143916E+03
 -0.266050201676E+03 -0.263102521356E+03 -0.259939141339E+03 -0.256548275109E+03 -0.252918566231E+03
 -0.249039404290E+03 -0.244901310080E+03 -0.240496397526E+03 -0.235818917934E+03 -0.230865888865E+03
 -0.225637805087E+03 -0.220139422942E+03 -0.214380603053E+03 -0.208377191163E+03 -0.202151914584E+03
 -0.195735270626E+03 -0.189166373845E+03 -0.182493687443E+03 -0.175775457428E+03 -0.169079486540E+03
 -0.162476853184E+03 -0.156080303584E+03 -0.149951322300E+03 -0.144170898277E+03 -0.138839656294E+03
 -0.134371194947E+03 -0.130570243536E+03 -0.127440992268E+03 -0.123751019519E+03 -0.119852548604E+03
 -0.116077990806E+03 -0.112422305931E+03 -0.108881750368E+03 -0.105452698312E+03 -0.102131638217E+03
 -0.989151691348E+02 -0.957999971446E+02 -0.927829321105E+02 -0.898608843403E+02 -0.870308614413E+02
 -0.842899652583E+02 -0.816353889072E+02 -0.790644139017E+02 -0.765744073631E+02 -0.741628193409E+02
 -0.718271801977E+02 -0.695650980618E+02 -0.673742564074E+02 -0.652524116503E+02 -0.631973908823E+02
 -0.612070896094E+02 -0.592794696331E+02 -0.574125569175E+02 -0.556044396080E+02 -0.538532660539E+02
 -0.521572429138E+02 -0.505146333228E+02 -0.489237551128E+02 -0.473829790901E+02 -0.458907273679E+02
 -0.444454717511E+02 -0.430457321721E+02 -0.416900751740E+02 -0.403771124446E+02 -0.391054993941E+02
 -0.378739337781E+02 -0.366811543646E+02 -0.355259396424E+02 -0.344071065699E+02 -0.333235093639E+02
 -0.322740383259E+02 -0.312576187060E+02 -0.302732096021E+02 -0.293198028937E+02 -0.283964222096E+02
 -0.275021219281E+02 -0.266359862084E+02 -0.257971280527E+02 -0.249846883979E+02 -0.241978352358E+02
 -0.234357627608E+02
 pspotential valence only
 -0.207075297687E+03 -0.207077257483E+03 -0.207079155557E+03 -0.207080993850E+03 -0.207082774248E+03
 -0.207084498571E+03 -0.207086168586E+03 -0.207087786005E+03 -0.207089352481E+03 -0.207090869620E+03
 -0.207092338976E+03 -0.207093762053E+03 -0.207095140307E+03 -0.207096475151E+03 -0.207097767951E+03
 -0.207099020032E+03 -0.207100232674E+03 -0.207101407121E+03 -0.207102544573E+03 -0.207103646197E+03
 -0.207104713120E+03 -0.207105746433E+03 -0.207106747197E+03 -0.207107716433E+03 -0.207108655136E+03
 -0.207109564266E+03 -0.207110444754E+03 -0.207111297500E+03 -0.207112123380E+03 -0.207112923236E+03
 -0.207113697888E+03 -0.207114448129E+03 -0.207115174728E+03 -0.207115878426E+03 -0.207116559945E+03
 -0.207117219982E+03 -0.207117859212E+03 -0.207118478288E+03 -0.207119077845E+03 -0.207119658496E+03
 -0.207120220834E+03 -0.207120765434E+03 -0.207121292854E+03 -0.207121803632E+03 -0.207122298290E+03
 -0.207122777334E+03 -0.207123241253E+03 -0.207123690521E+03 -0.207124125597E+03 -0.207124546924E+03
 -0.207124954933E+03 -0.207125350040E+03 -0.207125732648E+03 -0.207126103146E+03 -0.207126461913E+03
 -0.207126809313E+03 -0.207127145700E+03 -0.207127471416E+03 -0.207127786791E+03 -0.207128092147E+03
 -0.207128387793E+03 -0.207128674028E+03 -0.207128951143E+03 -0.207129219417E+03 -0.207129479122E+03
 -0.207129730518E+03 -0.207129973861E+03 -0.207130209394E+03 -0.207130437353E+03 -0.207130657966E+03
 -0.207130871455E+03 -0.207131078031E+03 -0.207131277900E+03 -0.207131471260E+03 -0.207131658301E+03
 -0.207131839209E+03 -0.207132014158E+03 -0.207132183321E+03 -0.207132346860E+03 -0.207132504934E+03
 -0.207132657694E+03 -0.207132805284E+03 -0.207132947845E+03 -0.207133085508E+03 -0.207133218403E+03
 -0.207133346649E+03 -0.207133470363E+03 -0.207133589656E+03 -0.207133704630E+03 -0.207133815386E+03
 -0.207133922017E+03 -0.207134024611E+03 -0.207134123249E+03 -0.207134218009E+03 -0.207134308962E+03
 -0.207134396172E+03 -0.207134479701E+03 -0.207134559602E+03 -0.207134635923E+03 -0.207134708708E+03
 -0.207134777992E+03 -0.207134843805E+03 -0.207134906173E+03 -0.207134965113E+03 -0.207135020635E+03
 -0.207135072745E+03 -0.207135121440E+03 -0.207135166709E+03 -0.207135208538E+03 -0.207135246899E+03
 -0.207135281760E+03 -0.207135313081E+03 -0.207135340811E+03 -0.207135364891E+03 -0.207135385253E+03
 -0.207135401817E+03 -0.207135414496E+03 -0.207135423188E+03 -0.207135427784E+03 -0.207135428158E+03
 -0.207135424174E+03 -0.207135415683E+03 -0.207135402520E+03 -0.207135384506E+03 -0.207135361445E+03
 -0.207135333127E+03 -0.207135299319E+03 -0.207135259774E+03 -0.207135214224E+03 -0.207135162377E+03
 -0.207135103921E+03 -0.207135038520E+03 -0.207134965811E+03 -0.207134885406E+03 -0.207134796887E+03
 -0.207134699806E+03 -0.207134593683E+03 -0.207134478002E+03 -0.207134352212E+03 -0.207134215723E+03
 -0.207134067902E+03 -0.207133908074E+03 -0.207133735515E+03 -0.207133549452E+03 -0.207133349060E+03
 -0.207133133454E+03 -0.207132901691E+03 -0.207132652765E+03 -0.207132385598E+03 -0.207132099042E+03
 -0.207131791869E+03 -0.207131462770E+03 -0.207131110348E+03 -0.207130733110E+03 -0.207130329464E+03
 -0.207129897713E+03 -0.207129436042E+03 -0.207128942520E+03 -0.207128415083E+03 -0.207127851531E+03
 -0.207127249518E+03 -0.207126606539E+03 -0.207125919925E+03 -0.207125186828E+03 -0.207124404213E+03
 -0.207123568840E+03 -0.207122677256E+03 -0.207121725779E+03 -0.207120710482E+03 -0.207119627177E+03
 -0.207118471400E+03 -0.207117238391E+03 -0.207115923074E+03 -0.207114520036E+03 -0.207113023508E+03
 -0.207111427338E+03 -0.207109724966E+03 -0.207107909400E+03 -0.207105973185E+03 -0.207103908372E+03
 -0.207101706487E+03 -0.207099358497E+03 -0.207096854772E+03 -0.207094185043E+03 -0.207091338365E+03
 -0.207088303071E+03 -0.207085066723E+03 -0.207081616059E+03 -0.207077936944E+03 -0.207074014312E+03
 -0.207069832098E+03 -0.207065373181E+03 -0.207060619309E+03 -0.207055551027E+03 -0.207050147595E+03
 -0.207044386909E+03 -0.207038245406E+03 -0.207031697971E+03 -0.207024717833E+03 -0.207017276460E+03
 -0.207009343440E+03 -0.207000886359E+03 -0.206991870669E+03 -0.206982259552E+03 -0.206972013765E+03
 -0.206961091487E+03 -0.206949448148E+03 -0.206937036251E+03 -0.206923805178E+03 -0.206909700990E+03
 -0.206894666209E+03 -0.206878639587E+03 -0.206861555864E+03 -0.206843345502E+03 -0.206823934415E+03
 -0.206803243666E+03 -0.206781189161E+03 -0.206757681310E+03 -0.206732624678E+03 -0.206705917602E+03
 -0.206677451798E+03 -0.206647111931E+03 -0.206614775165E+03 -0.206580310686E+03 -0.206543579191E+03
 -0.206504432350E+03 -0.206462712235E+03 -0.206418250708E+03 -0.206370868785E+03 -0.206320375951E+03
 -0.206266569438E+03 -0.206209233464E+03 -0.206148138423E+03 -0.206083040034E+03 -0.206013678434E+03
 -0.205939777230E+03 -0.205861042491E+03 -0.205777161690E+03 -0.205687802583E+03 -0.205592612040E+03
 -0.205491214806E+03 -0.205383212204E+03 -0.205268180773E+03 -0.205145670844E+03 -0.205015205048E+03
 -0.204876276756E+03 -0.204728348460E+03 -0.204570850079E+03 -0.204403177207E+03 -0.204224689299E+03
 -0.204034707790E+03 -0.203832514171E+03 -0.203617348005E+03 -0.203388404901E+03 -0.203144834465E+03
 -0.202885738211E+03 -0.202610167480E+03 -0.202317121352E+03 -0.202005544588E+03 -0.201674325629E+03
 -0.201322294659E+03 -0.200948221784E+03 -0.200550815358E+03 -0.200128720496E+03 -0.199680517829E+03
 -0.199204722566E+03 -0.198699783912E+03 -0.198164084953E+03 -0.197595943057E+03 -0.196993610933E+03
 -0.196355278436E+03 -0.195679075265E+03 -0.194963074699E+03 -0.194205298530E+03 -0.193403723391E+03
 -0.192556288677E+03 -0.191660906272E+03 -0.190715472353E+03 -0.189717881494E+03 -0.188666043377E+03
 -0.187557902368E+03 -0.186391460251E+03 -0.185164802386E+03 -0.183876127534E+03 -0.182523781538E+03
 -0.181106294989E+03 -0.179622424860E+03 -0.178071199977E+03 -0.176451969938E+03 -0.174764456834E+03
 -0.173008808729E+03 -0.171185653396E+03 -0.169296150144E+03 -0.167342036807E+03 -0.165325667923E+03
 -0.163250038847E+03 -0.161118788934E+03 -0.158936174980E+03 -0.156707003889E+03 -0.154436511364E+03
 -0.152130171894E+03 -0.149793425870E+03 -0.147431314457E+03 -0.145048025092E+03 -0.142646372908E+03
 -0.140227275544E+03 -0.137789310751E+03 -0.135328452355E+03 -0.132838021823E+03 -0.130308750864E+03
 -0.127723835691E+03 -0.125099962921E+03 -0.122398481386E+03 -0.119601751722E+03 -0.116720132829E+03
 -0.114092961843E+03 -0.111474381941E+03 -0.108848410065E+03 -0.106223541089E+03 -0.103628167350E+03
 -0.101060610558E+03 -0.985220907487E+02 -0.960146132522E+02 -0.935398168605E+02 -0.910990138851E+02
 -0.886932464731E+02 -0.863233568120E+02 -0.839900660081E+02 -0.816940559168E+02 -0.794360462854E+02
 -0.772168601891E+02 -0.750374716178E+02 -0.728990308786E+02 -0.708028656320E+02 -0.687504575100E+02
 -0.667433961129E+02 -0.647833136330E+02 -0.628718045238E+02 -0.610103356205E+02 -0.592001531157E+02
 -0.574421937020E+02 -0.557370078366E+02 -0.540847030130E+02 -0.524849137791E+02 -0.509368027943E+02
 -0.494390936841E+02 -0.479901324271E+02 -0.465879703663E+02 -0.452304595031E+02 -0.439153499927E+02
 -0.426403807360E+02 -0.414033562105E+02 -0.402022055498E+02 -0.390350226969E+02 -0.379000887394E+02
 -0.367958790543E+02 -0.357210586397E+02 -0.346744691196E+02 -0.336551105925E+02 -0.326621209372E+02
 -0.316947545568E+02 -0.307523619398E+02 -0.298343709003E+02 -0.289402699555E+02 -0.280695940043E+02
 -0.272219122734E+02 -0.263968183744E+02 -0.255939222557E+02 -0.248128438049E+02 -0.240532078643E+02
 -0.233146404351E+02
 core charge-density (pseudized)
  0.145922586761E-10  0.155566960465E-10  0.165848753949E-10  0.176810095813E-10  0.188495899040E-10
  0.200954045015E-10  0.214235579722E-10  0.228394922894E-10  0.243490090994E-10  0.259582934934E-10
  0.276739393499E-10  0.295029763527E-10  0.314528987940E-10  0.335316962818E-10  0.357478864765E-10
  0.381105499909E-10  0.406293675970E-10  0.433146598925E-10  0.461774295877E-10  0.492294065885E-10
  0.524830960580E-10  0.559518296555E-10  0.596498201614E-10  0.635922197125E-10  0.677951818864E-10
  0.722759278892E-10  0.770528171173E-10  0.821454223832E-10  0.875746101130E-10  0.933626258447E-10
  0.995331853763E-10  0.106111571939E-09  0.113124739793E-09  0.120601424669E-09  0.128572261510E-09
  0.137069909995E-09  0.146129188358E-09  0.155787216051E-09  0.166083565839E-09  0.177060425945E-09
  0.188762772908E-09  0.201238555873E-09  0.214538893058E-09  0.228718281199E-09  0.243834818853E-09
  0.259950444441E-09  0.277131190042E-09  0.295447451946E-09  0.314974279097E-09  0.335791680594E-09
  0.357984953525E-09  0.381645032455E-09  0.406868862023E-09  0.433759794160E-09  0.462428011560E-09
  0.492990979140E-09  0.525573925337E-09  0.560310355216E-09  0.597342597490E-09  0.636822387692E-09
  0.678911489890E-09  0.723782359493E-09  0.771618849866E-09  0.822616965639E-09  0.876985665810E-09
  0.934947719921E-09  0.996740620826E-09  0.106261755778E-08  0.113284845383E-08  0.120772107181E-08
  0.128754219338E-08  0.137263887599E-08  0.146335979300E-08  0.156007666226E-08  0.166318576915E-08
  0.177310959033E-08  0.189029852471E-08  0.201523273889E-08  0.214842413452E-08  0.229041844575E-08
  0.244179747522E-08  0.260318147785E-08  0.277523170223E-08  0.295865309988E-08  0.315419721362E-08
  0.336266525683E-08  0.358491139615E-08  0.382184625126E-08  0.407444062576E-08  0.434372948483E-08
  0.463081619558E-08  0.493687704775E-08  0.526316607313E-08  0.561102018346E-08  0.598186464788E-08
  0.637721893240E-08  0.679870292525E-08  0.724804357356E-08  0.772708195874E-08  0.823778083936E-08
  0.878223269246E-08  0.936266828632E-08  0.998146581967E-08  0.106411606648E-07  0.113444557548E-07
  0.120942326565E-07  0.128935633760E-07  0.137457229432E-07  0.146542028294E-07  0.156227252495E-07
  0.166552584111E-07  0.177560327698E-07  0.189295583594E-07  0.201806432666E-07  0.215144133263E-07
  0.229363331189E-07  0.244522283533E-07  0.260683097304E-07  0.277911983817E-07  0.296279529891E-07
  0.315860986959E-07  0.336736579276E-07  0.358991832488E-07  0.382717923899E-07  0.408012055877E-07
  0.434977853914E-07  0.463725790990E-07  0.494373639942E-07  0.527046955724E-07  0.561879589497E-07
  0.599014236675E-07  0.638603021145E-07  0.680808118065E-07  0.725802417769E-07  0.773770233502E-07
  0.824908055862E-07  0.879425357039E-07  0.937545448122E-07  0.999506392980E-07  0.106556198243E-06
  0.113598277270E-06  0.121105719233E-06  0.129109272216E-06  0.137641715304E-06  0.146737992655E-06
  0.156435356407E-06  0.166773519002E-06  0.177794815552E-06  0.189544376900E-06  0.202070314088E-06
  0.215423914960E-06  0.229659853731E-06  0.244836414329E-06  0.261015728455E-06  0.278264029291E-06
  0.296651921905E-06  0.316254671427E-06  0.337152510178E-06  0.359430964963E-06  0.383181205875E-06
  0.408500417990E-06  0.435492197455E-06  0.464266973558E-06  0.494942458463E-06  0.527644126418E-06
  0.562505724341E-06  0.599669815817E-06  0.639288360677E-06  0.681523332456E-06  0.726547376165E-06
  0.774544508994E-06  0.825710866693E-06  0.880255498571E-06  0.938401214221E-06  0.100038548530E-05
  0.106646140584E-05  0.113689871486E-05  0.121198488520E-05  0.129202628279E-05  0.137734940079E-05
  0.146830217328E-05  0.156525537359E-05  0.166860410242E-05  0.177876937147E-05  0.189619978833E-05
  0.202137334908E-05  0.215479934505E-05  0.229702039074E-05  0.244861458030E-05  0.261019778023E-05
  0.278242606656E-05  0.296599831502E-05  0.316165895318E-05  0.337020088416E-05  0.359246859165E-05
  0.382936143680E-05  0.408183715770E-05  0.435091558284E-05  0.463768257029E-05  0.494329418501E-05
  0.526898112670E-05  0.561605342168E-05  0.598590539205E-05  0.638002091623E-05  0.679997899507E-05
  0.724745963794E-05  0.772425008375E-05  0.823225137140E-05  0.877348527480E-05  0.935010161686E-05
  0.996438597709E-05  0.106187678066E-04  0.113158289640E-04  0.120583126839E-04  0.128491329902E-04
  0.136913845627E-04  0.145883530646E-04  0.155435259372E-04  0.165606036617E-04  0.176435114891E-04
  0.187964116303E-04  0.200237158962E-04  0.213300987710E-04  0.227205108936E-04  0.242001929153E-04
  0.257746896908E-04  0.274498647484E-04  0.292319149739E-04  0.311273854236E-04  0.331431841699E-04
  0.352865970570E-04  0.375653022261E-04  0.399873842415E-04  0.425613476183E-04  0.452961295209E-04
  0.482011113616E-04  0.512861289859E-04  0.545614810846E-04  0.580379354132E-04  0.617267323449E-04
  0.656395852091E-04  0.697886767947E-04  0.741866513131E-04  0.788466010197E-04  0.837820465936E-04
  0.890069102594E-04  0.945354805126E-04  0.100382367176E-03  0.106562445369E-03  0.113090786818E-03
  0.119982576768E-03  0.127253014577E-03  0.134917195905E-03  0.142989974200E-03  0.151485799021E-03
  0.160418528509E-03  0.169801213175E-03  0.179645847984E-03  0.189963089559E-03  0.200761935244E-03
  0.212049360669E-03  0.223829912487E-03  0.236105253019E-03  0.248873653745E-03  0.262129434918E-03
  0.275862349068E-03  0.290056906919E-03  0.304691645193E-03  0.319738337105E-03  0.335161148021E-03
  0.350915740892E-03  0.366948338705E-03  0.383194754480E-03  0.399579403236E-03  0.416014315113E-03
  0.432398174336E-03  0.448615415249E-03  0.464535414058E-03  0.480011823398E-03  0.494882106242E-03
  0.508967335990E-03  0.522072340552E-03  0.533986279669E-03  0.544483756050E-03  0.553326571583E-03
  0.560266248910E-03  0.565047444932E-03  0.567412384703E-03  0.567106439738E-03  0.563884961548E-03
  0.557521456246E-03  0.547817145922E-03  0.534611903132E-03  0.517796461964E-03  0.497325698210E-03
  0.473232627753E-03  0.445642592572E-03  0.414786885480E-03  0.381014807806E-03  0.344802862512E-03
  0.306759468111E-03  0.267623253183E-03  0.228252684495E-03  0.189604534052E-03  0.152698557697E-03
  0.118565814592E-03  0.881783968071E-04  0.623590744863E-04  0.416706228598E-04  0.262865176155E-04
  0.158473903209E-04  0.933113186524E-05  0.539593366026E-05  0.306281223286E-05  0.170547676853E-05
  0.931074974490E-06  0.498046569813E-06  0.260870973853E-06  0.133710911365E-06  0.670190759371E-07
  0.328258424501E-07  0.157001717147E-07  0.732721231137E-08  0.333413381754E-08  0.147805334857E-08
  0.637825046952E-09  0.267699264110E-09  0.109180364074E-09  0.432313371706E-10  0.166035723157E-10
  0.617919034971E-11  0.222614338848E-11  0.775560976412E-12  0.261008428435E-12  0.847593421201E-13
  0.265287837404E-13  0.799335331072E-14  0.231574158325E-14  0.644243146642E-15  0.171885197186E-15
  0.439204696916E-16  0.107331247847E-16  0.250487718368E-17  0.557438649449E-18  0.118109791138E-18
  0.237880416940E-19  0.454672495743E-20  0.823314994127E-21  0.140992877797E-21  0.227931454135E-22
  0.347195728439E-23  0.497357647955E-24  0.668685966378E-25  0.842057534509E-26  0.991074309153E-27
  0.108783974635E-27  0.111105828755E-28  0.105343930081E-29  0.924992023013E-31  0.750315159014E-32
  0.560807086129E-33  0.385210627527E-34  0.242500152791E-35  0.139518123289E-36  0.731460110020E-38
  0.348408020597E-39  0.150306404701E-40  0.585423486479E-42  0.205179262568E-43  0.644895709415E-45
  0.181139730071E-46
 pseudo wavefunction
  0.206436469338E-03  0.213149268271E-03  0.220080350674E-03  0.227236814579E-03  0.234625988831E-03
  0.242255440589E-03  0.250132983076E-03  0.258266683585E-03  0.266664871733E-03  0.275336147998E-03
  0.284289392523E-03  0.293533774212E-03  0.303078760118E-03  0.312934125137E-03  0.323109962024E-03
  0.333616691722E-03  0.344465074038E-03  0.355666218660E-03  0.367231596537E-03  0.379173051622E-03
  0.391502813006E-03  0.404233507438E-03  0.417378172256E-03  0.430950268742E-03  0.444963695902E-03
  0.459432804705E-03  0.474372412776E-03  0.489797819572E-03  0.505724822049E-03  0.522169730841E-03
  0.539149386963E-03  0.556681179055E-03  0.574783061192E-03  0.593473571272E-03  0.612771849995E-03
  0.632697660470E-03  0.653271408450E-03  0.674514163234E-03  0.696447679237E-03  0.719094418274E-03
  0.742477572560E-03  0.766621088460E-03  0.791549691014E-03  0.817288909255E-03  0.843865102357E-03
  0.871305486622E-03  0.899638163357E-03  0.928892147651E-03  0.959097398085E-03  0.990284847417E-03
  0.102248643425E-02  0.105573513576E-02  0.109006500144E-02  0.112551118798E-02  0.116210999528E-02
  0.119989890361E-02  0.123891661200E-02  0.127920307787E-02  0.132079955793E-02  0.136374865046E-02
  0.140809433891E-02  0.145388203696E-02  0.150115863501E-02  0.154997254818E-02  0.160037376595E-02
  0.165241390329E-02  0.170614625355E-02  0.176162584300E-02  0.181890948724E-02  0.187805584932E-02
  0.193912549982E-02  0.200218097893E-02  0.206728686041E-02  0.213450981779E-02  0.220391869260E-02
  0.227558456487E-02  0.234958082592E-02  0.242598325351E-02  0.250487008945E-02  0.258632211969E-02
  0.267042275706E-02  0.275725812669E-02  0.284691715417E-02  0.293949165662E-02  0.303507643672E-02
  0.313376937976E-02  0.323567155385E-02  0.334088731345E-02  0.344952440618E-02  0.356169408316E-02
  0.367751121290E-02  0.379709439890E-02  0.392056610113E-02  0.404805276132E-02  0.417968493251E-02
  0.431559741262E-02  0.445592938249E-02  0.460082454838E-02  0.475043128904E-02  0.490490280763E-02
  0.506439728854E-02  0.522907805932E-02  0.539911375784E-02  0.557467850492E-02  0.575595208255E-02
  0.594312011787E-02  0.613637427318E-02  0.633591244208E-02  0.654193895196E-02  0.675466477312E-02
  0.697430773467E-02  0.720109274734E-02  0.743525203369E-02  0.767702536561E-02  0.792666030967E-02
  0.818441248035E-02  0.845054580150E-02  0.872533277627E-02  0.900905476584E-02  0.930200227709E-02
  0.960447525972E-02  0.991678341285E-02  0.102392465017E-01  0.105721946844E-01  0.109159688494E-01
  0.112709209640E-01  0.116374144337E-01  0.120158244740E-01  0.124065384929E-01  0.128099564872E-01
  0.132264914507E-01  0.136565697959E-01  0.141006317892E-01  0.145591320001E-01  0.150325397653E-01
  0.155213396670E-01  0.160260320273E-01  0.165471334184E-01  0.170851771886E-01  0.176407140061E-01
  0.182143124197E-01  0.188065594376E-01  0.194180611247E-01  0.200494432195E-01  0.207013517699E-01
  0.213744537902E-01  0.220694379384E-01  0.227870152156E-01  0.235279196871E-01  0.242929092274E-01
  0.250827662876E-01  0.258982986883E-01  0.267403404368E-01  0.276097525706E-01  0.285074240269E-01
  0.294342725407E-01  0.303912455693E-01  0.313793212474E-01  0.323995093714E-01  0.334528524138E-01
  0.345404265703E-01  0.356633428382E-01  0.368227481289E-01  0.380198264143E-01  0.392557999081E-01
  0.405319302835E-01  0.418495199277E-01  0.432099132344E-01  0.446144979350E-01  0.460647064698E-01
  0.475620173999E-01  0.491079568607E-01  0.507041000581E-01  0.523520728081E-01  0.540535531210E-01
  0.558102728310E-01  0.576240192715E-01  0.594966369982E-01  0.614300295590E-01  0.634261613130E-01
  0.654870592987E-01  0.676148151514E-01  0.698115870715E-01  0.720796018429E-01  0.744211569028E-01
  0.768386224623E-01  0.793344436788E-01  0.819111428785E-01  0.845713218311E-01  0.873176640732E-01
  0.901529372827E-01  0.930799957008E-01  0.961017826019E-01  0.992213328086E-01  0.102441775251E+00
  0.105766335567E+00  0.109198338741E+00  0.112741211778E+00  0.116398486409E+00  0.120173801822E+00
  0.124070907415E+00  0.128093665568E+00  0.132246054416E+00  0.136532170627E+00  0.140956232177E+00
  0.145522581096E+00  0.150235686192E+00  0.155100145731E+00  0.160120690062E+00  0.165302184164E+00
  0.170649630111E+00  0.176168169417E+00  0.181863085257E+00  0.187739804523E+00  0.193803899702E+00
  0.200061090529E+00  0.206517245399E+00  0.213178382487E+00  0.220050670534E+00  0.227140429270E+00
  0.234454129394E+00  0.241998392085E+00  0.249779987961E+00  0.257805835426E+00  0.266082998327E+00
  0.274618682845E+00  0.283420233517E+00  0.292495128305E+00  0.301850972582E+00  0.311495491943E+00
  0.321436523680E+00  0.331682006804E+00  0.342239970441E+00  0.353118520437E+00  0.364325823988E+00
  0.375870092095E+00  0.387759559618E+00  0.400002462696E+00  0.412607013277E+00  0.425581370473E+00
  0.438933608451E+00  0.452671680522E+00  0.466803379091E+00  0.481336291092E+00  0.496277748506E+00
  0.511634773540E+00  0.527414018010E+00  0.543621696461E+00  0.560263512493E+00  0.577344577795E+00
  0.594869323299E+00  0.612841401904E+00  0.631263582156E+00  0.650137632291E+00  0.669464194013E+00
  0.689242645398E+00  0.709470952316E+00  0.730145507794E+00  0.751260958752E+00  0.772810019636E+00
  0.794783272520E+00  0.817168953348E+00  0.839952724131E+00  0.863117431063E+00  0.886642848732E+00
  0.910505410851E+00  0.934677928238E+00  0.959129295134E+00  0.983824185400E+00  0.100872274063E+01
  0.103378025286E+01  0.105894684511E+01  0.108416715413E+01  0.110938002014E+01  0.113451818993E+01
  0.115950804037E+01  0.118426933109E+01  0.120871499613E+01  0.123275098617E+01  0.125627617437E+01
  0.127918234079E+01  0.130135425172E+01  0.132266985231E+01  0.134300059230E+01  0.136221190597E+01
  0.138016386868E+01  0.139671205269E+01  0.141170860490E+01  0.142500356791E+01  0.143644646343E+01
  0.144588815297E+01  0.145318298467E+01  0.145819122634E+01  0.146078177340E+01  0.146083510479E+01
  0.145824644097E+01  0.145292903374E+01  0.144481748876E+01  0.143387098719E+01  0.142007623293E+01
  0.140344990755E+01  0.138404036601E+01  0.136192825576E+01  0.133722569117E+01  0.131007357014E+01
  0.128063658414E+01  0.124909545618E+01  0.121563595141E+01  0.118043425607E+01  0.114363842484E+01
  0.110534577271E+01  0.106558928563E+01  0.102454013405E+01  0.982423078806E+00  0.939472867677E+00
  0.895922541787E+00  0.852001637310E+00  0.807934455902E+00  0.763938414303E+00  0.720222483642E+00
  0.676985728372E+00  0.634415954838E+00  0.592688479976E+00  0.551965031636E+00  0.512392793228E+00
  0.474103606426E+00  0.437213346199E+00  0.401821481951E+00  0.368010836679E+00  0.335847552659E+00
  0.305381267229E+00  0.276645496109E+00  0.249658214970E+00  0.224422623196E+00  0.200928067803E+00
  0.179151100760E+00  0.159056639883E+00  0.140599202360E+00  0.123724180553E+00  0.108369132078E+00
  0.944650597084E-01  0.819376611201E-01  0.707085332644E-01  0.606963207878E-01  0.518178017968E-01
  0.439889070859E-01  0.371256704512E-01  0.311451079526E-01  0.259660232525E-01  0.215097349270E-01
  0.177007204421E-01  0.144671708158E-01  0.117414501645E-01  0.946045547733E-02  0.756587399442E-02
  0.600433825148E-02  0.472748186750E-02  0.369190217458E-02  0.285903851841E-02  0.219497727740E-02
  0.167019621938E-02  0.125926167858E-02  0.940492205631E-03  0.695601883181E-03  0.509335511473E-03
  0.369106473921E-03  0.264646422155E-03  0.187674100369E-03  0.131588776038E-03  0.911919575470E-04
  0.624394385201E-04
 ae wavefunction
 -0.100159027303E-02 -0.103406906520E-02 -0.106760044793E-02 -0.110221849490E-02 -0.113795838032E-02
 -0.117485641421E-02 -0.121295007898E-02 -0.125227806701E-02 -0.129288031952E-02 -0.133479806667E-02
 -0.137807386890E-02 -0.142275165957E-02 -0.146887678900E-02 -0.151649606988E-02 -0.156565782409E-02
 -0.161641193103E-02 -0.166880987750E-02 -0.172290480907E-02 -0.177875158314E-02 -0.183640682369E-02
 -0.189592897765E-02 -0.195737837316E-02 -0.202081727957E-02 -0.208630996937E-02 -0.215392278203E-02
 -0.222372418988E-02 -0.229578486599E-02 -0.237017775420E-02 -0.244697814135E-02 -0.252626373173E-02
 -0.260811472380E-02 -0.269261388944E-02 -0.277984665543E-02 -0.286990118770E-02 -0.296286847793E-02
 -0.305884243304E-02 -0.315791996728E-02 -0.326020109724E-02 -0.336578903969E-02 -0.347479031249E-02
 -0.358731483854E-02 -0.370347605290E-02 -0.382339101315E-02 -0.394718051315E-02 -0.407496920018E-02
 -0.420688569562E-02 -0.434306271931E-02 -0.448363721757E-02 -0.462875049517E-02 -0.477854835105E-02
 -0.493318121825E-02 -0.509280430793E-02 -0.525757775761E-02 -0.542766678381E-02 -0.560324183918E-02
 -0.578447877421E-02 -0.597155900364E-02 -0.616466967771E-02 -0.636400385839E-02 -0.656976070058E-02
 -0.678214563861E-02 -0.700137057802E-02 -0.722765409271E-02 -0.746122162776E-02 -0.770230570791E-02
 -0.795114615170E-02 -0.820799029187E-02 -0.847309320152E-02 -0.874671792660E-02 -0.902913572482E-02
 -0.932062631071E-02 -0.962147810771E-02 -0.993198850642E-02 -0.102524641301E-01 -0.105832211070E-01
 -0.109245853495E-01 -0.112768928409E-01 -0.116404899287E-01 -0.120157336265E-01 -0.124029919221E-01
 -0.128026440936E-01 -0.132150810339E-01 -0.136407055819E-01 -0.140799328621E-01 -0.145331906317E-01
 -0.150009196365E-01 -0.154835739733E-01 -0.159816214622E-01 -0.164955440249E-01 -0.170258380727E-01
 -0.175730149020E-01 -0.181376010970E-01 -0.187201389415E-01 -0.193211868380E-01 -0.199413197347E-01
 -0.205811295598E-01 -0.212412256641E-01 -0.219222352699E-01 -0.226248039280E-01 -0.233495959808E-01
 -0.240972950329E-01 -0.248686044266E-01 -0.256642477248E-01 -0.264849691986E-01 -0.273315343200E-01
 -0.282047302591E-01 -0.291053663859E-01 -0.300342747742E-01 -0.309923107094E-01 -0.319803531974E-01
 -0.329993054744E-01 -0.340500955176E-01 -0.351336765537E-01 -0.362510275664E-01 -0.374031538004E-01
 -0.385910872597E-01 -0.398158872019E-01 -0.410786406224E-01 -0.423804627316E-01 -0.437224974193E-01
 -0.451059177066E-01 -0.465319261827E-01 -0.480017554236E-01 -0.495166683912E-01 -0.510779588092E-01
 -0.526869515138E-01 -0.543450027755E-01 -0.560535005886E-01 -0.578138649254E-01 -0.596275479512E-01
 -0.614960341950E-01 -0.634208406735E-01 -0.654035169611E-01 -0.674456452040E-01 -0.695488400704E-01
 -0.717147486324E-01 -0.739450501737E-01 -0.762414559162E-01 -0.786057086583E-01 -0.810395823192E-01
 -0.835448813796E-01 -0.861234402114E-01 -0.887771222885E-01 -0.915078192677E-01 -0.943174499322E-01
 -0.972079589845E-01 -0.100181315681E+00 -0.103239512296E+00 -0.106384562397E+00 -0.109618498933E+00
 -0.112943372100E+00 -0.116361247000E+00 -0.119874201040E+00 -0.123484321094E+00 -0.127193700387E+00
 -0.131004435084E+00 -0.134918620586E+00 -0.138938347490E+00 -0.143065697207E+00 -0.147302737213E+00
 -0.151651515917E+00 -0.156114057111E+00 -0.160692353996E+00 -0.165388362745E+00 -0.170203995586E+00
 -0.175141113375E+00 -0.180201517639E+00 -0.185386942056E+00 -0.190699043337E+00 -0.196139391504E+00
 -0.201709459508E+00 -0.207410612172E+00 -0.213244094428E+00 -0.219211018813E+00 -0.225312352192E+00
 -0.231548901685E+00 -0.237921299756E+00 -0.244429988440E+00 -0.251075202676E+00 -0.257856952719E+00
 -0.264775005589E+00 -0.271828865555E+00 -0.279017753596E+00 -0.286340585837E+00 -0.293795950936E+00
 -0.301382086386E+00 -0.309096853736E+00 -0.316937712701E+00 -0.324901694166E+00 -0.332985372063E+00
 -0.341184834140E+00 -0.349495651613E+00 -0.357912847728E+00 -0.366430865235E+00 -0.375043532828E+00
 -0.383744030560E+00 -0.392524854311E+00 -0.401377779341E+00 -0.410293823013E+00 -0.419263206771E+00
 -0.428275317460E+00 -0.437318668115E+00 -0.446380858336E+00 -0.455448534399E+00 -0.464507349281E+00
 -0.473541922764E+00 -0.482535801848E+00 -0.491471421680E+00 -0.500330067276E+00 -0.509091836296E+00
 -0.517735603195E+00 -0.526238985064E+00 -0.534578309535E+00 -0.542728585142E+00 -0.550663474550E+00
 -0.558355271109E+00 -0.565774879216E+00 -0.572891799001E+00 -0.579674115876E+00 -0.586088495544E+00
 -0.592100185052E+00 -0.597673020551E+00 -0.602769442416E+00 -0.607350518433E+00 -0.611375975769E+00
 -0.614804242477E+00 -0.617592499284E+00 -0.619696742468E+00 -0.621071858593E+00 -0.621671711903E+00
 -0.621449245187E+00 -0.620356594879E+00 -0.618345221189E+00 -0.615366053993E+00 -0.611369655203E+00
 -0.606306398282E+00 -0.600126665497E+00 -0.592781063432E+00 -0.584220657212E+00 -0.574397223735E+00
 -0.563263524118E+00 -0.550773595393E+00 -0.536883061321E+00 -0.521549461998E+00 -0.504732601700E+00
 -0.486394914195E+00 -0.466501844454E+00 -0.445022245455E+00 -0.421928788431E+00 -0.397198384644E+00
 -0.370812616442E+00 -0.342758175026E+00 -0.313027302083E+00 -0.281618232127E+00 -0.248535632108E+00
 -0.213791034579E+00 -0.177403260432E+00 -0.139398826850E+00 -0.998123357304E-01 -0.586868371880E-01
 -0.160741619148E-01  0.279647851387E-01  0.733597790295E-01  0.120031088595E+00  0.167889363883E+00
  0.216835613568E+00  0.266761288911E+00  0.317548486309E+00  0.369070267693E+00  0.421191074241E+00
  0.473767176062E+00  0.526647070058E+00  0.579671731096E+00  0.632674660305E+00  0.685481764764E+00
  0.737911220818E+00  0.789773564267E+00  0.840872251169E+00  0.891004812523E+00  0.939964532092E+00
  0.987542423781E+00  0.103352926373E+01  0.107771752564E+01  0.111990318741E+01  0.115988745034E+01
  0.119747842632E+01  0.123249282924E+01  0.126475767747E+01  0.129411199133E+01  0.132040845509E+01
  0.134351500712E+01  0.136331632192E+01  0.137971515094E+01  0.139263349424E+01  0.140201358042E+01
  0.140781863718E+01  0.141003343989E+01  0.140866462982E+01  0.140374079763E+01  0.139531233212E+01
  0.138345103718E+01  0.136824952455E+01  0.134982039218E+01  0.132829520226E+01  0.130382327468E+01
  0.127657031495E+01  0.124671689649E+01  0.121445681951E+01  0.117999536871E+01  0.114354749261E+01
  0.110533592718E+01  0.106558928563E+01  0.102454013405E+01  0.982423078806E+00  0.939472867677E+00
  0.895922541787E+00  0.852001637310E+00  0.807934455902E+00  0.763938414303E+00  0.720222483642E+00
  0.676985728372E+00  0.634415954838E+00  0.592688479976E+00  0.551965031636E+00  0.512392793228E+00
  0.474103606426E+00  0.437213346199E+00  0.401821481951E+00  0.368010836679E+00  0.335847552659E+00
  0.305381267229E+00  0.276645496109E+00  0.249658214970E+00  0.224422623196E+00  0.200928067803E+00
  0.179151100760E+00  0.159056639883E+00  0.140599202360E+00  0.123724180553E+00  0.108369132078E+00
  0.944650597084E-01  0.819376611201E-01  0.707085332644E-01  0.606963207878E-01  0.518178017968E-01
  0.439889070859E-01  0.371256704512E-01  0.311451079526E-01  0.259660232525E-01  0.215097349270E-01
  0.177007204421E-01  0.144671708158E-01  0.117414501645E-01  0.946045547733E-02  0.756587399442E-02
  0.600433825148E-02  0.472748186750E-02  0.369190217458E-02  0.285903851841E-02  0.219497727740E-02
  0.167019621938E-02  0.125926167858E-02  0.940492205631E-03  0.695601883181E-03  0.509335511473E-03
  0.369106473921E-03  0.264646422155E-03  0.187674100369E-03  0.131588776038E-03  0.911919575470E-04
  0.624394385201E-04
 pseudo wavefunction
 -0.279515514899E-03 -0.288604662055E-03 -0.297989365593E-03 -0.307679236269E-03 -0.317684197356E-03
 -0.328014494807E-03 -0.338680707748E-03 -0.349693759311E-03 -0.361064927822E-03 -0.372805858349E-03
 -0.384928574629E-03 -0.397445491380E-03 -0.410369427016E-03 -0.423713616773E-03 -0.437491726265E-03
 -0.451717865477E-03 -0.466406603214E-03 -0.481572982023E-03 -0.497232533596E-03 -0.513401294678E-03
 -0.530095823487E-03 -0.547333216674E-03 -0.565131126828E-03 -0.583507780556E-03 -0.602481997151E-03
 -0.622073207859E-03 -0.642301475781E-03 -0.663187516421E-03 -0.684752718896E-03 -0.707019167845E-03
 -0.730009666044E-03 -0.753747757754E-03 -0.778257752838E-03 -0.803564751654E-03 -0.829694670757E-03
 -0.856674269445E-03 -0.884531177158E-03 -0.913293921774E-03 -0.942991958826E-03 -0.973655701663E-03
 -0.100531655260E-02 -0.103800693507E-02 -0.107176032684E-02 -0.110661129428E-02 -0.114259552776E-02
 -0.117974987823E-02 -0.121811239491E-02 -0.125772236431E-02 -0.129862035040E-02 -0.134084823622E-02
 -0.138444926669E-02 -0.142946809298E-02 -0.147595081818E-02 -0.152394504453E-02 -0.157349992215E-02
 -0.162466619941E-02 -0.167749627488E-02 -0.173204425096E-02 -0.178836598933E-02 -0.184651916815E-02
 -0.190656334107E-02 -0.196855999830E-02 -0.203257262950E-02 -0.209866678885E-02 -0.216691016217E-02
 -0.223737263621E-02 -0.231012637022E-02 -0.238524586988E-02 -0.246280806354E-02 -0.254289238105E-02
 -0.262558083507E-02 -0.271095810503E-02 -0.279911162389E-02 -0.289013166764E-02 -0.298411144775E-02
 -0.308114720661E-02 -0.318133831611E-02 -0.328478737934E-02 -0.339160033571E-02 -0.350188656938E-02
 -0.361575902131E-02 -0.373333430485E-02 -0.385473282520E-02 -0.398007890266E-02 -0.410950089994E-02
 -0.424313135355E-02 -0.438110710959E-02 -0.452356946375E-02 -0.467066430608E-02 -0.482254227028E-02
 -0.497935888798E-02 -0.514127474795E-02 -0.530845566048E-02 -0.548107282719E-02 -0.565930301627E-02
 -0.584332874343E-02 -0.603333845875E-02 -0.622952673962E-02 -0.643209448987E-02 -0.664124914545E-02
 -0.685720488679E-02 -0.708018285794E-02 -0.731041139301E-02 -0.754812624982E-02 -0.779357085116E-02
 -0.804699653400E-02 -0.830866280658E-02 -0.857883761408E-02 -0.885779761273E-02 -0.914582845289E-02
 -0.944322507135E-02 -0.975029199304E-02 -0.100673436426E-01 -0.103947046660E-01 -0.107327102625E-01
 -0.110817065279E-01 -0.114420508078E-01 -0.118141120638E-01 -0.121982712501E-01 -0.125949217035E-01
 -0.130044695452E-01 -0.134273340961E-01 -0.138639483053E-01 -0.143147591926E-01 -0.147802283051E-01
 -0.152608321889E-01 -0.157570628758E-01 -0.162694283861E-01 -0.167984532468E-01 -0.173446790274E-01
 -0.179086648930E-01 -0.184909881742E-01 -0.190922449568E-01 -0.197130506895E-01 -0.203540408114E-01
 -0.210158714002E-01 -0.216992198402E-01 -0.224047855131E-01 -0.231332905098E-01 -0.238854803656E-01
 -0.246621248195E-01 -0.254640185962E-01 -0.262919822151E-01 -0.271468628239E-01 -0.280295350589E-01
 -0.289409019334E-01 -0.298818957538E-01 -0.308534790650E-01 -0.318566456259E-01 -0.328924214155E-01
 -0.339618656719E-01 -0.350660719622E-01 -0.362061692886E-01 -0.373833232267E-01 -0.385987371020E-01
 -0.398536532012E-01 -0.411493540229E-01 -0.424871635661E-01 -0.438684486596E-01 -0.452946203320E-01
 -0.467671352244E-01 -0.482874970460E-01 -0.498572580750E-01 -0.514780207046E-01 -0.531514390365E-01
 -0.548792205219E-01 -0.566631276528E-01 -0.585049797028E-01 -0.604066545204E-01 -0.623700903748E-01
 -0.643972878560E-01 -0.664903118304E-01 -0.686512934520E-01 -0.708824322324E-01 -0.731859981680E-01
 -0.755643339283E-01 -0.780198571032E-01 -0.805550625136E-01 -0.831725245830E-01 -0.858748997728E-01
 -0.886649290814E-01 -0.915454406073E-01 -0.945193521776E-01 -0.975896740403E-01 -0.100759511623E+00
 -0.104032068353E+00 -0.107410648550E+00 -0.110898660372E+00 -0.114499618828E+00 -0.118217148861E+00
 -0.122054988473E+00 -0.126016991927E+00 -0.130107132990E+00 -0.134329508235E+00 -0.138688340393E+00
 -0.143187981741E+00 -0.147832917540E+00 -0.152627769499E+00 -0.157577299271E+00 -0.162686411960E+00
 -0.167960159651E+00 -0.173403744926E+00 -0.179022524382E+00 -0.184822012116E+00 -0.190807883173E+00
 -0.196985976949E+00 -0.203362300503E+00 -0.209943031792E+00 -0.216734522786E+00 -0.223743302429E+00
 -0.230976079447E+00 -0.238439744942E+00 -0.246141374750E+00 -0.254088231524E+00 -0.262287766494E+00
 -0.270747620857E+00 -0.279475626747E+00 -0.288479807718E+00 -0.297768378680E+00 -0.307349745218E+00
 -0.317232502206E+00 -0.327425431633E+00 -0.337937499544E+00 -0.348777851992E+00 -0.359955809870E+00
 -0.371480862517E+00 -0.383362659930E+00 -0.395611003453E+00 -0.408235834748E+00 -0.421247222885E+00
 -0.434655349325E+00 -0.448470490597E+00 -0.462702998400E+00 -0.477363276892E+00 -0.492461756859E+00
 -0.508008866455E+00 -0.524014998183E+00 -0.540490471727E+00 -0.557445492262E+00 -0.574890103785E+00
 -0.592834137013E+00 -0.611287151351E+00 -0.630258370377E+00 -0.649756610267E+00 -0.669790200557E+00
 -0.690366896550E+00 -0.711493782700E+00 -0.733177166197E+00 -0.755422459982E+00 -0.778234054363E+00
 -0.801615176361E+00 -0.825567735888E+00 -0.850092157822E+00 -0.875187199034E+00 -0.900849749390E+00
 -0.927074615746E+00 -0.953854287995E+00 -0.981178686206E+00 -0.100903488797E+01 -0.103740683516E+01
 -0.106627501930E+01 -0.109561614515E+01 -0.112540277184E+01 -0.115560293167E+01 -0.118617972648E+01
 -0.121709090213E+01 -0.124828840209E+01 -0.127971790137E+01 -0.131131832293E+01 -0.134302133939E+01
 -0.137475086341E+01 -0.140642253149E+01 -0.143794318684E+01 -0.146921036810E+01 -0.150011181248E+01
 -0.153052498298E+01 -0.156031663165E+01 -0.158934241212E+01 -0.161744655712E+01 -0.164446163854E+01
 -0.167020842984E+01 -0.169449589269E+01 -0.171712131177E+01 -0.173787060348E+01 -0.175651882580E+01
 -0.177283091726E+01 -0.178656269338E+01 -0.179746212766E+01 -0.180527094232E+01 -0.180972652958E+01
 -0.181056421839E+01 -0.180751989263E+01 -0.180033295511E+01 -0.178874961634E+01 -0.177252646808E+01
 -0.175143427801E+01 -0.172526191469E+01 -0.169382027980E+01 -0.165694608987E+01 -0.161450531175E+01
 -0.156639601851E+01 -0.151255039679E+01 -0.145293560821E+01 -0.138755319079E+01 -0.131643668983E+01
 -0.123964723940E+01 -0.115726688694E+01 -0.106938957687E+01 -0.976109897281E+00 -0.877509961036E+00
 -0.773645149292E+00 -0.664544400419E+00 -0.550321870566E+00 -0.431143482169E+00 -0.307167808156E+00
 -0.178541425784E+00 -0.453944817404E-01  0.921640538188E-01  0.234051481928E+00  0.380216860702E+00
  0.530646928217E+00  0.685372510839E+00  0.000000000000E+00  0.000000000000E+00  0.000000000000E+00
  0.000000000000E+00  0.000000000000E+00  0.000000000000E+00  0.000000000000E+00  0.000000000000E+00
  0.000000000000E+00  0.000000000000E+00  0.000000000000E+00  0.000000000000E+00  0.000000000000E+00
  0.000000000000E+00  0.000000000000E+00  0.000000000000E+00  0.000000000000E+00  0.000000000000E+00
  0.000000000000E+00  0.000000000000E+00  0.000000000000E+00  0.000000000000E+00  0.000000000000E+00
  0.000000000000E+00  0.000000000000E+00  0.000000000000E+00  0.000000000000E+00  0.000000000000E+00
  0.000000000000E+00  0.000000000000E+00  0.000000000000E+00  0.000000000000E+00  0.000000000000E+00
  0.000000000000E+00  0.000000000000E+00  0.000000000000E+00  0.000000000000E+00  0.000000000000E+00
  0.000000000000E+00  0.000000000000E+00  0.000000000000E+00  0.000000000000E+00  0.000000000000E+00
  0.000000000000E+00  0.000000000000E+00  0.000000000000E+00  0.000000000000E+00  0.000000000000E+00
  0.000000000000E+00
 ae wavefunction
  0.131112129669E-02  0.135363732023E-02  0.139753122636E-02  0.144284761891E-02  0.148963254226E-02
  0.153793352768E-02  0.158779964111E-02  0.163928153241E-02  0.169243148619E-02  0.174730347438E-02
  0.180395321022E-02  0.186243820425E-02  0.192281782181E-02  0.198515334253E-02  0.204950802167E-02
  0.211594715331E-02  0.218453813569E-02  0.225535053844E-02  0.232845617207E-02  0.240392915956E-02
  0.248184601026E-02  0.256228569604E-02  0.264532972992E-02  0.273106224711E-02  0.281957008858E-02
  0.291094288726E-02  0.300527315697E-02  0.310265638405E-02  0.320319112190E-02  0.330697908846E-02
  0.341412526666E-02  0.352473800807E-02  0.363892913971E-02  0.375681407418E-02  0.387851192314E-02
  0.400414561438E-02  0.413384201241E-02  0.426773204282E-02  0.440595082035E-02  0.454863778100E-02
  0.469593681809E-02  0.484799642248E-02  0.500496982706E-02  0.516701515562E-02  0.533429557625E-02
  0.550697945925E-02  0.568524053999E-02  0.586925808644E-02  0.605921707193E-02  0.625530835281E-02
  0.645772885168E-02  0.666668174581E-02  0.688237666129E-02  0.710502987277E-02  0.733486450923E-02
  0.757211076554E-02  0.781700612042E-02  0.806979556052E-02  0.833073181115E-02  0.860007557350E-02
  0.887809576871E-02  0.916506978894E-02  0.946128375550E-02  0.976703278423E-02  0.100826212585E-01
  0.104083631095E-01  0.107445821048E-01  0.110916121441E-01  0.114497975641E-01  0.118194934507E-01
  0.122010659602E-01  0.125948926490E-01  0.130013628118E-01  0.134208778290E-01  0.138538515234E-01
  0.143007105254E-01  0.147618946485E-01  0.152378572732E-01  0.157290657421E-01  0.162360017631E-01
  0.167591618239E-01  0.172990576157E-01  0.178562164671E-01  0.184311817891E-01  0.190245135291E-01
  0.196367886364E-01  0.202686015373E-01  0.209205646217E-01  0.215933087388E-01  0.222874837050E-01
  0.230037588205E-01  0.237428233983E-01  0.245053873015E-01  0.252921814927E-01  0.261039585926E-01
  0.269414934489E-01  0.278055837147E-01  0.286970504370E-01  0.296167386544E-01  0.305655180032E-01
  0.315442833331E-01  0.325539553301E-01  0.335954811482E-01  0.346698350475E-01  0.357780190386E-01
  0.369210635343E-01  0.381000280054E-01  0.393160016403E-01  0.405701040097E-01  0.418634857324E-01
  0.431973291423E-01  0.445728489566E-01  0.459912929414E-01  0.474539425753E-01  0.489621137086E-01
  0.505171572161E-01  0.521204596420E-01  0.537734438353E-01  0.554775695718E-01  0.572343341629E-01
  0.590452730457E-01  0.609119603541E-01  0.628360094663E-01  0.648190735257E-01  0.668628459328E-01
  0.689690608026E-01  0.711394933844E-01  0.733759604399E-01  0.756803205745E-01  0.780544745165E-01
  0.805003653394E-01  0.830199786217E-01  0.856153425373E-01  0.882885278704E-01  0.910416479485E-01
  0.938768584851E-01  0.967963573241E-01  0.998023840792E-01  0.102897219657E+00  0.106083185654E+00
  0.109362643625E+00  0.112737994196E+00  0.116211676026E+00  0.119786164602E+00  0.123463970845E+00
  0.127247639527E+00  0.131139747472E+00  0.135142901539E+00  0.139259736355E+00  0.143492911803E+00
  0.147845110218E+00  0.152319033302E+00  0.156917398721E+00  0.161642936363E+00  0.166498384246E+00
  0.171486484043E+00  0.176609976204E+00  0.181871594654E+00  0.187274061031E+00  0.192820078450E+00
  0.198512324749E+00  0.204353445206E+00  0.210346044679E+00  0.216492679147E+00  0.222795846620E+00
  0.229257977373E+00  0.235881423488E+00  0.242668447646E+00  0.249621211148E+00  0.256741761122E+00
  0.264032016871E+00  0.271493755337E+00  0.279128595620E+00  0.286937982534E+00  0.294923169138E+00
  0.303085198217E+00  0.311424882660E+00  0.319942784701E+00  0.328639193984E+00  0.337514104395E+00
  0.346567189650E+00  0.355797777583E+00  0.365204823096E+00  0.374786879754E+00  0.384542069981E+00
  0.394468053835E+00  0.404561996338E+00  0.414820533346E+00  0.425239735941E+00  0.435815073342E+00
  0.446541374325E+00  0.457412787182E+00  0.468422738203E+00  0.479563888738E+00  0.490828090848E+00
  0.502206341618E+00  0.513688736176E+00  0.525264419495E+00  0.536921537085E+00  0.548647184658E+00
  0.560427356919E+00  0.572246895613E+00  0.584089437000E+00  0.595937358954E+00  0.607771727907E+00
  0.619572245866E+00  0.631317197791E+00  0.642983399630E+00  0.654546147349E+00  0.665979167312E+00
  0.677254568433E+00  0.688342796524E+00  0.699212591324E+00  0.709830946724E+00  0.720163074749E+00
  0.730172373887E+00  0.739820402428E+00  0.749066857471E+00  0.757869560360E+00  0.766184449292E+00
  0.773965579941E+00  0.781165134935E+00  0.787733443100E+00  0.793619009413E+00  0.798768556625E+00
  0.803127079587E+00  0.806637913299E+00  0.809242815773E+00  0.810882066765E+00  0.811494583513E+00
  0.811018054551E+00  0.809389092730E+00  0.806543408512E+00  0.802416004613E+00  0.796941393008E+00
  0.790053835279E+00  0.781687607177E+00  0.771777288236E+00  0.760258077099E+00  0.747066133140E+00
  0.732138944756E+00  0.715415724553E+00  0.696837831407E+00  0.676349219156E+00  0.653896911378E+00
  0.629431501426E+00  0.602907676540E+00  0.574284764510E+00  0.543527300953E+00  0.510605614909E+00
  0.475496430012E+00  0.438183478124E+00  0.398658121878E+00  0.356919982226E+00  0.312977566680E+00
  0.266848893571E+00  0.218562107233E+00  0.168156078590E+00  0.115680984956E+00  0.611988620688E-01
  0.478412013547E-02 -0.534759860812E-01 -0.113480945490E+00 -0.175116652654E+00 -0.238255162432E+00
 -0.302754559045E+00 -0.368458961514E+00 -0.435198681223E+00 -0.502790530101E+00 -0.571038246100E+00
 -0.639732959304E+00 -0.708653582314E+00 -0.777567000910E+00 -0.846227994350E+00 -0.914378936498E+00
 -0.981749485462E+00 -0.104805658810E+01 -0.111300512242E+01 -0.117628933760E+01 -0.123759499263E+01
 -0.129660189470E+01 -0.135298651348E+01 -0.140642447457E+01 -0.145659289396E+01 -0.150317261111E+01
 -0.154585039549E+01 -0.158432117481E+01 -0.161829029349E+01 -0.164747577930E+01 -0.167161057733E+01
 -0.169044470203E+01 -0.170374725888E+01 -0.171130829064E+01 -0.171294041019E+01 -0.170848018838E+01
 -0.169778927177E+01 -0.168075521079E+01 -0.165729198488E+01 -0.162734021458E+01 -0.159086705713E+01
 -0.154786578404E+01 -0.149835504551E+01 -0.144237782784E+01 -0.138000011468E+01 -0.131130926417E+01
 -0.123641211654E+01 -0.115543284606E+01 -0.106851057266E+01 -0.975796745417E+00 -0.877452309126E+00
 -0.773644660953E+00 -0.664544400419E+00 -0.550321870566E+00 -0.431143482169E+00 -0.307167808156E+00
 -0.178541425784E+00 -0.453944817404E-01  0.921640538188E-01  0.234051481928E+00  0.380216860702E+00
  0.530646928217E+00  0.685372510839E+00  0.000000000000E+00  0.000000000000E+00  0.000000000000E+00
  0.000000000000E+00  0.000000000000E+00  0.000000000000E+00  0.000000000000E+00  0.000000000000E+00
  0.000000000000E+00  0.000000000000E+00  0.000000000000E+00  0.000000000000E+00  0.000000000000E+00
  0.000000000000E+00  0.000000000000E+00  0.000000000000E+00  0.000000000000E+00  0.000000000000E+00
  0.000000000000E+00  0.000000000000E+00  0.000000000000E+00  0.000000000000E+00  0.000000000000E+00
  0.000000000000E+00  0.000000000000E+00  0.000000000000E+00  0.000000000000E+00  0.000000000000E+00
  0.000000000000E+00  0.000000000000E+00  0.000000000000E+00  0.000000000000E+00  0.000000000000E+00
  0.000000000000E+00  0.000000000000E+00  0.000000000000E+00  0.000000000000E+00  0.000000000000E+00
  0.000000000000E+00  0.000000000000E+00  0.000000000000E+00  0.000000000000E+00  0.000000000000E+00
  0.000000000000E+00  0.000000000000E+00  0.000000000000E+00  0.000000000000E+00  0.000000000000E+00
  0.000000000000E+00
 pseudo wavefunction
  0.102023570179E-07  0.108766552637E-07  0.115955194977E-07  0.123618951928E-07  0.131789224956E-07
  0.140499490921E-07  0.149785439253E-07  0.159685118177E-07  0.170239090621E-07  0.181490600411E-07
  0.193485749464E-07  0.206273686680E-07  0.219906809329E-07  0.234440977742E-07  0.249935744194E-07
  0.266454596909E-07  0.284065220205E-07  0.302839771814E-07  0.322855178547E-07  0.344193451493E-07
  0.366942022048E-07  0.391194100159E-07  0.417049056242E-07  0.444612828342E-07  0.473998356199E-07
  0.505326044015E-07  0.538724253791E-07  0.574329831279E-07  0.612288666694E-07  0.652756292486E-07
  0.695898520611E-07  0.741892121938E-07  0.790925550542E-07  0.843199715875E-07  0.898928805978E-07
  0.958341165088E-07  0.102168022925E-06  0.108920552380E-06  0.116119372668E-06  0.123793980218E-06
  0.131975820945E-06  0.140698419100E-06  0.149997514632E-06  0.159911209627E-06  0.170480124429E-06
  0.181747564076E-06  0.193759695740E-06  0.206565737889E-06  0.220218161955E-06  0.234772907333E-06
  0.250289610583E-06  0.266831849786E-06  0.284467405048E-06  0.303268536220E-06  0.323312278979E-06
  0.344680760467E-06  0.367461535802E-06  0.391747946824E-06  0.417639504553E-06  0.445242296923E-06
  0.474669423466E-06  0.506041458723E-06  0.539486946284E-06  0.575142925484E-06  0.613155492899E-06
  0.653680400963E-06  0.696883696143E-06  0.742942399297E-06  0.792045230990E-06  0.844393384757E-06
  0.900201351462E-06  0.959697798155E-06  0.102312650500E-05  0.109074736412E-05  0.116283744451E-05
  0.123969212722E-05  0.132162631572E-05  0.140897572610E-05  0.150209826265E-05  0.160137548434E-05
  0.170721416815E-05  0.182004797581E-05  0.194033923067E-05  0.206858081195E-05  0.220529817427E-05
  0.235105150060E-05  0.250643799751E-05  0.267209434212E-05  0.284869929075E-05  0.303697646001E-05
  0.323769729167E-05  0.345168421351E-05  0.367981400901E-05  0.392302140977E-05  0.418230292543E-05
  0.445872092656E-05  0.475340799752E-05  0.506757157691E-05  0.540249890473E-05  0.575956229655E-05
  0.614022476611E-05  0.654604601963E-05  0.697868884626E-05  0.743992593073E-05  0.793164711644E-05
  0.845586714834E-05  0.901473392769E-05  0.961053731217E-05  0.102457184977E-04  0.109228800203E-04
  0.116447964186E-04  0.124144256015E-04  0.132349209663E-04  0.141096443187E-04  0.150421796456E-04
  0.160363477985E-04  0.170962221471E-04  0.182261452673E-04  0.194307467323E-04  0.207149620784E-04
  0.220840530254E-04  0.235436290314E-04  0.250996702737E-04  0.267585521469E-04  0.285270713798E-04
  0.304124738787E-04  0.324224844097E-04  0.345653382422E-04  0.368498148830E-04  0.392852740397E-04
  0.418816939593E-04  0.446497122999E-04  0.476006697029E-04  0.507466562427E-04  0.541005609458E-04
  0.576761245797E-04  0.614879959303E-04  0.655517917949E-04  0.698841609385E-04  0.745028522741E-04
  0.794267875454E-04  0.846761388093E-04  0.902724110360E-04  0.962385301617E-04  0.102598936957E-03
  0.109379687090E-03  0.116608557800E-03  0.124315161607E-03  0.132531067535E-03  0.141289930327E-03
  0.150627628195E-03  0.160582409656E-03  0.171195050062E-03  0.182509018452E-03  0.194570655410E-03
  0.207429362663E-03  0.221137805175E-03  0.235752126572E-03  0.251332178768E-03  0.267941766731E-03
  0.285648909382E-03  0.304526117683E-03  0.324650691053E-03  0.346105033304E-03  0.368976989389E-03
  0.393360204323E-03  0.419354505720E-03  0.447066311520E-03  0.476609064527E-03  0.508103695536E-03
  0.541679116902E-03  0.577472748554E-03  0.615631078570E-03  0.656310260559E-03  0.699676750274E-03
  0.745907983983E-03  0.795193101344E-03  0.847733715659E-03  0.903744734595E-03  0.963455234647E-03
  0.102710939282E-02  0.109496747924E-02  0.116730691464E-02  0.124442339684E-02  0.132663210085E-02
  0.141426895706E-02  0.150769201277E-02  0.160728288227E-02  0.171344829120E-02  0.182662172111E-02
  0.194726516072E-02  0.207587097057E-02  0.221296386825E-02  0.235910304182E-02  0.251488439949E-02
  0.268094296413E-02  0.285795542153E-02  0.304664283220E-02  0.324777351652E-02  0.346216612426E-02
  0.369069289950E-02  0.393428315300E-02  0.419392695461E-02  0.447067905886E-02  0.476566307780E-02
  0.508007591566E-02  0.541519248087E-02  0.577237069149E-02  0.615305679109E-02  0.655879099281E-02
  0.699121347016E-02  0.745207071397E-02  0.794322227546E-02  0.846664791667E-02  0.902445518966E-02
  0.961888746716E-02  0.102523324477E-01  0.109273311588E-01  0.116465874833E-01  0.124129782326E-01
  0.132295637921E-01  0.140995993656E-01  0.150265468416E-01  0.160140873083E-01  0.170661342417E-01
  0.181868473900E-01  0.193806473773E-01  0.206522310481E-01  0.220065875712E-01  0.234490153191E-01
  0.249851395364E-01  0.266209308068E-01  0.283627243201E-01  0.302172399402E-01  0.321916030617E-01
  0.342933662399E-01  0.365305315627E-01  0.389115737269E-01  0.414454637636E-01  0.441416933417E-01
  0.470102995615E-01  0.500618901263E-01  0.533076687561E-01  0.567594606797E-01  0.604297380056E-01
  0.643316447389E-01  0.684790211653E-01  0.728864272766E-01  0.775691648582E-01  0.825432977953E-01
  0.878256700895E-01  0.934339209947E-01  0.993864965997E-01  0.105702657087E+00  0.112402478787E+00
  0.119506850039E+00  0.127037459721E+00  0.135016777198E+00  0.143468022251E+00  0.152415123401E+00
  0.161882662859E+00  0.171895806129E+00  0.182480214100E+00  0.193661935234E+00  0.205467275232E+00
  0.217922641357E+00  0.231054358309E+00  0.244888452395E+00  0.259450400436E+00  0.274764839750E+00
  0.290855235311E+00  0.307743500124E+00  0.325449564783E+00  0.343990892215E+00  0.363381933770E+00
  0.383633523104E+00  0.404752204756E+00  0.426739495028E+00  0.449591073697E+00  0.473295906392E+00
  0.497835299083E+00  0.523181888255E+00  0.549298572929E+00  0.576137397897E+00  0.603638401413E+00
  0.631728445165E+00  0.660320049751E+00  0.689310265144E+00  0.718579612685E+00  0.747991143137E+00
  0.777389664022E+00  0.806601198787E+00  0.835432750085E+00  0.863672449131E+00  0.891090182271E+00
  0.917438793775E+00  0.942455969521E+00  0.965866908321E+00  0.987387884751E+00  0.100673079735E+01
  0.102360877697E+01  0.103774289882E+01  0.104886999638E+01  0.105675151129E+01  0.106118322965E+01
  0.106200564700E+01  0.105911457215E+01  0.105247142126E+01  0.104211247275E+01  0.102815615376E+01
  0.101080722201E+01  0.990356507777E+00  0.967174714997E+00  0.941698679342E+00  0.914408490657E+00
  0.885794059769E+00  0.856310111299E+00  0.826319285206E+00  0.796022220273E+00  0.765483404935E+00
  0.734787930846E+00  0.704031796000E+00  0.673308989830E+00  0.642711010421E+00  0.612326378525E+00
  0.582240153091E+00  0.552533457915E+00  0.523283029034E+00  0.494560799305E+00  0.466433534604E+00
  0.438962536954E+00  0.412203427452E+00  0.386206018028E+00  0.361014275929E+00  0.336666378995E+00
  0.313194853805E+00  0.290626783278E+00  0.268984065874E+00  0.248283705477E+00  0.228538109850E+00
  0.209755376326E+00  0.191939546288E+00  0.175090814901E+00  0.159205689015E+00  0.144277093628E+00
  0.130294434762E+00  0.117243633085E+00  0.105107147176E+00  0.938640073071E-01  0.834898798879E-01
  0.739571794307E-01  0.652352398869E-01  0.572905511716E-01  0.500870606171E-01  0.435865336402E-01
  0.377489635828E-01  0.325330177036E-01  0.278965046901E-01  0.237968486760E-01  0.201915553725E-01
  0.170386572897E-01  0.142971268979E-01  0.119272487390E-01  0.989094376608E-02  0.815204143538E-02
  0.667649720038E-02  0.543255499117E-02  0.439085596382E-02  0.352449624729E-02  0.280903758866E-02
  0.222247569960E-02
 ae wavefunction
  0.170951134815E-06  0.181673161160E-06  0.192985993673E-06  0.204926770891E-06  0.217534775770E-06
  0.230851575042E-06  0.244921165455E-06  0.259790130574E-06  0.275507807513E-06  0.292126461770E-06
  0.309701476087E-06  0.328291548451E-06  0.347958904347E-06  0.368769520984E-06  0.390793367109E-06
  0.414104656477E-06  0.438782118610E-06  0.464909286133E-06  0.492574800427E-06  0.521872737097E-06
  0.552902951914E-06  0.585771449044E-06  0.620590772859E-06  0.657480424900E-06  0.696567307640E-06
  0.737986196816E-06  0.781880244215E-06  0.828401512821E-06  0.877711546807E-06  0.929981977722E-06
  0.985395171073E-06  0.104414491333E-05  0.110643714466E-05  0.117249073864E-05  0.124253833271E-05
  0.131682721255E-05  0.139562025404E-05  0.147919692613E-05  0.156785435951E-05  0.166190848460E-05
  0.176169524345E-05  0.186757188072E-05  0.197991831886E-05  0.209913862366E-05  0.222566256223E-05
  0.235994726880E-05  0.250247901174E-05  0.265377508226E-05  0.281438580087E-05  0.298489666093E-05
  0.316593060575E-05  0.335815045869E-05  0.356226151150E-05  0.377901427929E-05  0.400920743744E-05
  0.425369094996E-05  0.451336940211E-05  0.478920555052E-05  0.508222410442E-05  0.539351575492E-05
  0.572424146879E-05  0.607563705691E-05  0.644901804948E-05  0.684578488127E-05  0.726742841972E-05
  0.771553585763E-05  0.819179697724E-05  0.869801084133E-05  0.923609290492E-05  0.980808259632E-05
  0.104161514048E-04  0.110626114656E-04  0.117499247413E-04  0.124807127776E-04  0.132577670917E-04
  0.140840602649E-04  0.149627577238E-04  0.158972303118E-04  0.168910676731E-04  0.179480924980E-04
  0.190723757142E-04  0.202682526456E-04  0.215403402347E-04  0.228935553804E-04  0.243331344678E-04
  0.258646541635E-04  0.274940535633E-04  0.292276577769E-04  0.310722030412E-04  0.330348634603E-04
  0.351232794810E-04  0.373455882090E-04  0.397104556892E-04  0.422271112751E-04  0.449053842152E-04
  0.477557426087E-04  0.507893348751E-04  0.540180338966E-04  0.574544840097E-04  0.611121510281E-04
  0.650053754731E-04  0.691494292544E-04  0.735605759687E-04  0.782561350783E-04  0.832545502296E-04
  0.885754619226E-04  0.942397848582E-04  0.100269790226E-03  0.106689193265E-03  0.113523246396E-03
  0.120798838334E-03  0.128544599480E-03  0.136791014045E-03  0.145570539318E-03  0.154917732467E-03
  0.164869385441E-03  0.175464668371E-03  0.186745282079E-03  0.198755620207E-03  0.211542941575E-03
  0.225157553415E-03  0.239653006105E-03  0.255086300160E-03  0.271518106180E-03  0.289012998570E-03
  0.307639703873E-03  0.327471364565E-03  0.348585819291E-03  0.371065900491E-03  0.394999750472E-03
  0.420481157046E-03  0.447609909846E-03  0.476492178611E-03  0.507240914669E-03  0.539976277040E-03
  0.574826084552E-03  0.611926295503E-03  0.651421516473E-03  0.693465541959E-03  0.738221926563E-03
  0.785864591671E-03  0.836578468493E-03  0.890560179559E-03  0.948018760814E-03  0.100917642657E-02
  0.107426937967E-02  0.114354866935E-02  0.121728109943E-02  0.129575018946E-02  0.137925719176E-02
  0.146812216722E-02  0.156268512305E-02  0.166330721560E-02  0.177037202169E-02  0.188428688182E-02
  0.200548431904E-02  0.213442353710E-02  0.227159200180E-02  0.241750710962E-02  0.257271794770E-02
  0.273780714956E-02  0.291339285082E-02  0.310013074963E-02  0.329871627623E-02  0.350988687667E-02
  0.373442441522E-02  0.397315770060E-02  0.422696514100E-02  0.449677753277E-02  0.478358098812E-02
  0.508842000663E-02  0.541240069584E-02  0.575669414585E-02  0.612253996293E-02  0.651124996684E-02
  0.692421205678E-02  0.736289425016E-02  0.782884889865E-02  0.832371708532E-02  0.884923320635E-02
  0.940722974061E-02  0.999964220949E-02  0.106285143290E-01  0.112960033558E-01  0.120043856268E-01
  0.127560622928E-01  0.135535652448E-01  0.143995632289E-01  0.152968681485E-01  0.162484415460E-01
  0.172574012584E-01  0.183270282385E-01  0.194607735298E-01  0.206622653832E-01  0.219353165010E-01
  0.232839313887E-01  0.247123137958E-01  0.262248742214E-01  0.278262374578E-01  0.295212501409E-01
  0.313149882749E-01  0.332127646905E-01  0.352201363957E-01  0.373429117700E-01  0.395871575496E-01
  0.419592055459E-01  0.444656590321E-01  0.471133987289E-01  0.499095883118E-01  0.528616793574E-01
  0.559774156377E-01  0.592648366651E-01  0.627322803825E-01  0.663883848851E-01  0.702420890521E-01
  0.743026319592E-01  0.785795509326E-01  0.830826780982E-01  0.878221352699E-01  0.928083270132E-01
  0.980519317106E-01  0.103563890450E+00  0.109355393542E+00  0.115437864482E+00  0.121822941134E+00
  0.128522453951E+00  0.135548401001E+00  0.142912919589E+00  0.150628254253E+00  0.158706720921E+00
  0.167160666997E+00  0.176002427183E+00  0.185244274809E+00  0.194898368492E+00  0.204976693929E+00
  0.215491000669E+00  0.226452733705E+00  0.237872959787E+00  0.249762288355E+00  0.262130787044E+00
  0.274987891761E+00  0.288342311360E+00  0.302201927006E+00  0.316573686378E+00  0.331463492912E+00
  0.346876090348E+00  0.362814942915E+00  0.379282111556E+00  0.396278126643E+00  0.413801857722E+00
  0.431850380870E+00  0.450418844330E+00  0.469500333156E+00  0.489085733706E+00  0.509163598934E+00
  0.529720015641E+00  0.550738475112E+00  0.572199748983E+00  0.594081772817E+00  0.616359540702E+00
  0.639005015419E+00  0.661987060212E+00  0.685271400096E+00  0.708820622451E+00  0.732594227916E+00
  0.756548741928E+00  0.780637892444E+00  0.804812847500E+00  0.829022484915E+00  0.853213636263E+00
  0.877331216537E+00  0.901318137540E+00  0.925114929890E+00  0.948659078740E+00  0.971884198490E+00
  0.994719286803E+00  0.101708834590E+01  0.103891058850E+01  0.106010125954E+01  0.108057288782E+01
  0.110023666247E+01  0.111900367334E+01  0.113678590161E+01  0.115349698602E+01  0.116905285457E+01
  0.118337230852E+01  0.119637761326E+01  0.120799511445E+01  0.121815587482E+01  0.122679631373E+01
  0.123385882784E+01  0.123929237262E+01  0.124305298763E+01  0.124510425316E+01  0.124541766941E+01
  0.124397295272E+01  0.124075824582E+01  0.123577024116E+01  0.122901421777E+01  0.122050399408E+01
  0.121026179935E+01  0.119831806904E+01  0.118471116910E+01  0.116948705614E+01  0.115269888071E+01
  0.113440654217E+01  0.111467620296E+01  0.109357977175E+01  0.107119436338E+01  0.104760174422E+01
  0.102288777045E+01  0.997141825982E+00  0.970456265900E+00  0.942925869170E+00  0.914647305521E+00
  0.885718614950E+00  0.856238702950E+00  0.826306848133E+00  0.796022220273E+00  0.765483404935E+00
  0.734787930846E+00  0.704031796000E+00  0.673308989830E+00  0.642711010421E+00  0.612326378525E+00
  0.582240153091E+00  0.552533457915E+00  0.523283029034E+00  0.494560799305E+00  0.466433534604E+00
  0.438962536954E+00  0.412203427452E+00  0.386206018028E+00  0.361014275929E+00  0.336666378995E+00
  0.313194853805E+00  0.290626783278E+00  0.268984065874E+00  0.248283705477E+00  0.228538109850E+00
  0.209755376326E+00  0.191939546288E+00  0.175090814901E+00  0.159205689015E+00  0.144277093628E+00
  0.130294434762E+00  0.117243633085E+00  0.105107147176E+00  0.938640073071E-01  0.834898798879E-01
  0.739571794307E-01  0.652352398869E-01  0.572905511716E-01  0.500870606171E-01  0.435865336402E-01
  0.377489635828E-01  0.325330177036E-01  0.278965046901E-01  0.237968486760E-01  0.201915553725E-01
  0.170386572897E-01  0.142971268979E-01  0.119272487390E-01  0.989094376608E-02  0.815204143538E-02
  0.667649720038E-02  0.543255499117E-02  0.439085596382E-02  0.352449624729E-02  0.280903758866E-02
  0.222247569960E-02
 pseudo wavefunction
 -0.147280007276E-07 -0.157014096201E-07 -0.167391534406E-07 -0.178454842388E-07 -0.190249350925E-07
 -0.202823386815E-07 -0.216228470888E-07 -0.230519529111E-07 -0.245755117639E-07 -0.261997662744E-07
 -0.279313716601E-07 -0.297774229973E-07 -0.317454842935E-07 -0.338436194791E-07 -0.360804254491E-07
 -0.384650672879E-07 -0.410073158224E-07 -0.437175876564E-07 -0.466069878524E-07 -0.496873554329E-07
 -0.529713118896E-07 -0.564723128988E-07 -0.602047034547E-07 -0.641837766465E-07 -0.684258363198E-07
 -0.729482638809E-07 -0.777695895142E-07 -0.829095681085E-07 -0.883892602003E-07 -0.942311182671E-07
 -0.100459078724E-06 -0.107098660002E-06 -0.114177067104E-06 -0.121723303078E-06 -0.129768287852E-06
 -0.138344984924E-06 -0.147488536431E-06 -0.157236407136E-06 -0.167628537935E-06 -0.178707509517E-06
 -0.190518716825E-06 -0.203110555064E-06 -0.216534617993E-06 -0.230845909324E-06 -0.246103068093E-06
 -0.262368608930E-06 -0.279709178205E-06 -0.298195827100E-06 -0.317904302741E-06 -0.338915358557E-06
 -0.361315085162E-06 -0.385195263100E-06 -0.410653738905E-06 -0.437794826018E-06 -0.466729732198E-06
 -0.497577015184E-06 -0.530463068472E-06 -0.565522639196E-06 -0.602899380238E-06 -0.642746438835E-06
 -0.685227084072E-06 -0.730515375866E-06 -0.778796878150E-06 -0.830269419201E-06 -0.885143902216E-06
 -0.943645169461E-06 -0.100601292354E-05 -0.107250270952E-05 -0.114338696205E-05 -0.121895612155E-05
 -0.129951982431E-05 -0.138540817117E-05 -0.147697308005E-05 -0.157458972787E-05 -0.167865808783E-05
 -0.178960456821E-05 -0.190788375951E-05 -0.203398029707E-05 -0.216841084681E-05 -0.231172622214E-05
 -0.246451364090E-05 -0.262739913128E-05 -0.280105009698E-05 -0.298617805170E-05 -0.318354153446E-05
 -0.339394921758E-05 -0.361826322005E-05 -0.385740263989E-05 -0.411234731997E-05 -0.438414186272E-05
 -0.467389991013E-05 -0.498280870668E-05 -0.531213396376E-05 -0.566322504566E-05 -0.603752049818E-05
 -0.643655394277E-05 -0.686196036007E-05 -0.731548278879E-05 -0.779897946730E-05 -0.831443144717E-05
 -0.886395070991E-05 -0.944978882008E-05 -0.100743461503E-04 -0.107401817158E-04 -0.114500236591E-04
 -0.122067804274E-04 -0.130135526889E-04 -0.138736460357E-04 -0.147905845280E-04 -0.157681251312E-04
 -0.168102731087E-04 -0.179212984307E-04 -0.191057532687E-04 -0.203684906445E-04 -0.217146843126E-04
 -0.231498499564E-04 -0.246798677840E-04 -0.263110066188E-04 -0.280499495801E-04 -0.299038214622E-04
 -0.318802179211E-04 -0.339872365911E-04 -0.362335102563E-04 -0.386282422143E-04 -0.411812439760E-04
 -0.439029754568E-04 -0.468045878227E-04 -0.498979691669E-04 -0.531957932041E-04 -0.567115711820E-04
 -0.604597072217E-04 -0.644555573135E-04 -0.687154922103E-04 -0.732569644747E-04 -0.780985799553E-04
 -0.832601739828E-04 -0.887628925994E-04 -0.946292791522E-04 -0.100883366605E-03 -0.107550775946E-03
 -0.114658821094E-03 -0.122236620730E-03 -0.130315217511E-03 -0.138927705160E-03 -0.148109363937E-03
 -0.157897805057E-03 -0.168333124643E-03 -0.179458067829E-03 -0.191318203701E-03 -0.203962111780E-03
 -0.217441580805E-03 -0.231811820627E-03 -0.247131688090E-03 -0.263463927793E-03 -0.280875428745E-03
 -0.299437497925E-03 -0.319226151889E-03 -0.340322427587E-03 -0.362812713664E-03 -0.386789103591E-03
 -0.412349772055E-03 -0.439599376131E-03 -0.468649482875E-03 -0.499619025055E-03 -0.532634786876E-03
 -0.567831921652E-03 -0.605354503530E-03 -0.645356115478E-03 -0.688000475924E-03 -0.733462106551E-03
 -0.781927043952E-03 -0.833593597999E-03 -0.888673159962E-03 -0.947391063629E-03 -0.100998750286E-02
 -0.107671850927E-02 -0.114785699385E-02 -0.122369385686E-02 -0.130453917015E-02 -0.139072343685E-02
 -0.148259893320E-02 -0.158054113797E-02 -0.168495025501E-02 -0.179625283496E-02 -0.191490350243E-02
 -0.204138679538E-02 -0.217621912393E-02 -0.231995085611E-02 -0.247316853861E-02 -0.263649726117E-02
 -0.281060317348E-02 -0.299619616437E-02 -0.319403271330E-02 -0.340491892497E-02 -0.362971375843E-02
 -0.386933246267E-02 -0.412475023142E-02 -0.439700609061E-02 -0.468720703259E-02 -0.499653241209E-02
 -0.532623861968E-02 -0.567766404914E-02 -0.605223437642E-02 -0.645146816820E-02 -0.687698283945E-02
 -0.733050097998E-02 -0.781385707109E-02 -0.832900461426E-02 -0.887802369477E-02 -0.946312900421E-02
 -0.100866783465E-01 -0.107511816531E-01 -0.114593105342E-01 -0.122139083927E-01 -0.130180011291E-01
 -0.138748084665E-01 -0.147877559242E-01 -0.157604874692E-01 -0.167968788761E-01 -0.179010518240E-01
 -0.190773887604E-01 -0.203305485603E-01 -0.216654830074E-01 -0.230874541248E-01 -0.246020523781E-01
 -0.262152157725E-01 -0.279332498623E-01 -0.297628486856E-01 -0.317111166348E-01 -0.337855912626E-01
 -0.359942670211E-01 -0.383456199176E-01 -0.408486330642E-01 -0.435128230816E-01 -0.463482673077E-01
 -0.493656317385E-01 -0.525761996146E-01 -0.559919005385E-01 -0.596253399844E-01 -0.634898290301E-01
 -0.675994141044E-01 -0.719689065049E-01 -0.766139113932E-01 -0.815508559230E-01 -0.867970160973E-01
 -0.923705418820E-01 -0.982904800300E-01 -0.104576793981E+00 -0.111250380113E+00 -0.118333079501E+00
 -0.125847684238E+00 -0.133817937227E+00 -0.142268524205E+00 -0.151225056612E+00 -0.160714043720E+00
 -0.170762852264E+00 -0.181399651589E+00 -0.192653342101E+00 -0.204553464584E+00 -0.217130087636E+00
 -0.230413670261E+00 -0.244434896312E+00 -0.259224477206E+00 -0.274812919022E+00 -0.291230249777E+00
 -0.308505702395E+00 -0.326667348591E+00 -0.345741678644E+00 -0.365753121846E+00 -0.386723502245E+00
 -0.408671424299E+00 -0.431611583080E+00 -0.455553993928E+00 -0.480503136836E+00 -0.506457011528E+00
 -0.533406100107E+00 -0.561332235451E+00 -0.590207375242E+00 -0.619992283733E+00 -0.650635126089E+00
 -0.682069983616E+00 -0.714215302333E+00 -0.746972292349E+00 -0.780223301377E+00 -0.813830192603E+00
 -0.847632764897E+00 -0.881447262198E+00 -0.915065028597E+00 -0.948251376098E+00 -0.980744743067E+00
 -0.101225623248E+01 -0.104246962985E+01 -0.107104201047E+01 -0.109760505289E+01 -0.112176718032E+01
 -0.114311665062E+01 -0.116122570893E+01 -0.117565590079E+01 -0.118596461704E+01 -0.119171290137E+01
 -0.119247449487E+01 -0.118784601761E+01 -0.117745809276E+01 -0.116098710413E+01 -0.113816714513E+01
 -0.110880156860E+01 -0.107277339220E+01 -0.103005366469E+01 -0.980706772724E+00 -0.924891591624E+00
 -0.862857390469E+00 -0.794933531044E+00 -0.721512300538E+00 -0.643024738209E+00 -0.559910104890E+00
 -0.472580736544E+00 -0.381385429600E+00 -0.286576193060E+00 -0.188285229466E+00 -0.865472903808E-01
  0.186131020524E-01  0.127169292299E+00  0.000000000000E+00  0.000000000000E+00  0.000000000000E+00
  0.000000000000E+00  0.000000000000E+00  0.000000000000E+00  0.000000000000E+00  0.000000000000E+00
  0.000000000000E+00  0.000000000000E+00  0.000000000000E+00  0.000000000000E+00  0.000000000000E+00
  0.000000000000E+00  0.000000000000E+00  0.000000000000E+00  0.000000000000E+00  0.000000000000E+00
  0.000000000000E+00  0.000000000000E+00  0.000000000000E+00  0.000000000000E+00  0.000000000000E+00
  0.000000000000E+00  0.000000000000E+00  0.000000000000E+00  0.000000000000E+00  0.000000000000E+00
  0.000000000000E+00  0.000000000000E+00  0.000000000000E+00  0.000000000000E+00  0.000000000000E+00
  0.000000000000E+00  0.000000000000E+00  0.000000000000E+00  0.000000000000E+00  0.000000000000E+00
  0.000000000000E+00  0.000000000000E+00  0.000000000000E+00  0.000000000000E+00  0.000000000000E+00
  0.000000000000E+00  0.000000000000E+00  0.000000000000E+00  0.000000000000E+00  0.000000000000E+00
  0.000000000000E+00
 ae wavefunction
 -0.233714380727E-06 -0.248372923728E-06 -0.263839182916E-06 -0.280163932009E-06 -0.297400876456E-06
 -0.315606843951E-06 -0.334841984373E-06 -0.355169984153E-06 -0.376658294221E-06 -0.399378369023E-06
 -0.423405924735E-06 -0.448821209949E-06 -0.475709295850E-06 -0.504160382779E-06 -0.534270128080E-06
 -0.566139992639E-06 -0.599877611046E-06 -0.635597184428E-06 -0.673419898319E-06 -0.713474367622E-06
 -0.755897109566E-06 -0.800833047119E-06 -0.848436044664E-06 -0.898869478036E-06 -0.952306841218E-06
 -0.100893239208E-05 -0.106894183978E-05 -0.113254307635E-05 -0.119995695600E-05 -0.127141812383E-05
 -0.134717589983E-05 -0.142749521810E-05 -0.151265762859E-05 -0.160296236313E-05 -0.169872747069E-05
 -0.180029102658E-05 -0.190801242013E-05 -0.202227372580E-05 -0.214348116424E-05 -0.227206665804E-05
 -0.240848948860E-05 -0.255323806106E-05 -0.270683178443E-05 -0.286982307515E-05 -0.304279948709E-05
 -0.322638598893E-05 -0.342124738001E-05 -0.362809087234E-05 -0.384766883380E-05 -0.408078171866E-05
 -0.432828118073E-05 -0.459107339560E-05 -0.487012259937E-05 -0.516645485497E-05 -0.548116206748E-05
 -0.581540626096E-05 -0.617042413466E-05 -0.654753191648E-05 -0.694813053262E-05 -0.737371111600E-05
 -0.782586087662E-05 -0.830626934722E-05 -0.881673504842E-05 -0.935917257771E-05 -0.993562016716E-05
 -0.105482477396E-04 -0.111993654725E-04 -0.118914329455E-04 -0.126270688637E-04 -0.134090614212E-04
 -0.142403793589E-04 -0.151241837011E-04 -0.160638403073E-04 -0.170629332109E-04 -0.181252788206E-04
 -0.192549410858E-04 -0.204562476036E-04 -0.217338068052E-04 -0.230925262544E-04 -0.245376321225E-04
 -0.260746899575E-04 -0.277096267744E-04 -0.294487546023E-04 -0.312987955531E-04 -0.332669085228E-04
 -0.353607176213E-04 -0.375883424508E-04 -0.399584303502E-04 -0.424801907283E-04 -0.451634316211E-04
 -0.480185986219E-04 -0.510568163277E-04 -0.542899324707E-04 -0.577305649071E-04 -0.613921516341E-04
 -0.652890040496E-04 -0.694363636455E-04 -0.738504623570E-04 -0.785485868070E-04 -0.835491466936E-04
 -0.888717475637E-04 -0.945372683036E-04 -0.100567943574E-03 -0.106987451555E-03 -0.113821007339E-03
 -0.121095462288E-03 -0.128839409773E-03 -0.137083297672E-03 -0.145859548079E-03 -0.155202684629E-03
 -0.165149467995E-03 -0.175739039970E-03 -0.187013076763E-03 -0.199015952042E-03 -0.211794910302E-03
 -0.225400251274E-03 -0.239885525989E-03 -0.255307745266E-03 -0.271727601361E-03 -0.289209703612E-03
 -0.307822828926E-03 -0.327640188015E-03 -0.348739708365E-03 -0.371204334938E-03 -0.395122349690E-03
 -0.420587711063E-03 -0.447700414626E-03 -0.476566876183E-03 -0.507300338653E-03 -0.540021304179E-03
 -0.574857992959E-03 -0.611946830379E-03 -0.651432964142E-03 -0.693470813143E-03 -0.738224649968E-03
 -0.785869218968E-03 -0.836590392002E-03 -0.890585863991E-03 -0.948065890638E-03 -0.100925407063E-02
 -0.107438817500E-02 -0.114372102616E-02 -0.121752142954E-02 -0.129607516068E-02 -0.137968601097E-02
 -0.146867689505E-02 -0.156339102360E-02 -0.166419314473E-02 -0.177147085784E-02 -0.188563600389E-02
 -0.200712613593E-02 -0.213640607430E-02 -0.227396955077E-02 -0.242034094629E-02 -0.257607712700E-02
 -0.274176938358E-02 -0.291804547896E-02 -0.310557180970E-02 -0.330505568664E-02 -0.351724774036E-02
 -0.374294445736E-02 -0.398299085299E-02 -0.423828328725E-02 -0.450977242987E-02 -0.479846638101E-02
 -0.510543395437E-02 -0.543180812916E-02 -0.577878967802E-02 -0.614765097745E-02 -0.653974000795E-02
 -0.695648455048E-02 -0.739939658640E-02 -0.787007690754E-02 -0.837021994313E-02 -0.890161881021E-02
 -0.946617059377E-02 -0.100658818627E-01 -0.107028744273E-01 -0.113793913435E-01 -0.120978031682E-01
 -0.128606144712E-01 -0.136704706052E-01 -0.145301647375E-01 -0.154426451455E-01 -0.164110227749E-01
 -0.174385790621E-01 -0.185287740157E-01 -0.196852545562E-01 -0.209118631064E-01 -0.222126464257E-01
 -0.235918646785E-01 -0.250540007241E-01 -0.266037696130E-01 -0.282461282728E-01 -0.299862853603E-01
 -0.318297112573E-01 -0.337821481791E-01 -0.358496203648E-01 -0.380384443097E-01 -0.403552389978E-01
 -0.428069360876E-01 -0.454007899947E-01 -0.481443878125E-01 -0.510456590048E-01 -0.541128847934E-01
 -0.573547071622E-01 -0.607801373856E-01 -0.643985639831E-01 -0.682197599941E-01 -0.722538894532E-01
 -0.765115129410E-01 -0.810035920717E-01 -0.857414927696E-01 -0.907369871737E-01 -0.960022540003E-01
 -0.101549877179E+00 -0.107392842565E+00 -0.113544532525E+00 -0.120018718169E+00 -0.126829548997E+00
 -0.133991539720E+00 -0.141519553985E+00 -0.149428784752E+00 -0.157734731026E+00 -0.166453170657E+00
 -0.175600128917E+00 -0.185191842529E+00 -0.195244718847E+00 -0.205775289858E+00 -0.216800160694E+00
 -0.228335952315E+00 -0.240399238072E+00 -0.253006473813E+00 -0.266173921252E+00 -0.279917564308E+00
 -0.294253018160E+00 -0.309195430778E+00 -0.324759376731E+00 -0.340958743113E+00 -0.357806607468E+00
 -0.375315107654E+00 -0.393495303647E+00 -0.412357031348E+00 -0.431908748534E+00 -0.452157373171E+00
 -0.473108114391E+00 -0.494764296518E+00 -0.517127176608E+00 -0.540195756080E+00 -0.563966587071E+00
 -0.588433574239E+00 -0.613587772864E+00 -0.639417184152E+00 -0.665906548802E+00 -0.693037140086E+00
 -0.720786557912E+00 -0.749128525775E+00 -0.778032693016E+00 -0.807464445703E+00 -0.837384730590E+00
 -0.867749898249E+00 -0.898511573531E+00 -0.929616564037E+00 -0.961006819733E+00 -0.992619458513E+00
 -0.102438687154E+01 -0.105623691559E+01 -0.108809318350E+01 -0.111987531497E+01 -0.115149926919E+01
 -0.118287743992E+01 -0.121391847634E+01 -0.124452670999E+01 -0.127460119771E+01 -0.130403455203E+01
 -0.133271188471E+01 -0.136051025062E+01 -0.138729888112E+01 -0.141294024429E+01 -0.143729167762E+01
 -0.146020718206E+01 -0.148153902831E+01 -0.150113902585E+01 -0.151885949081E+01 -0.153455403469E+01
 -0.154807829020E+01 -0.155929064612E+01 -0.156805301546E+01 -0.157423162938E+01 -0.157769783276E+01
 -0.157832885196E+01 -0.157600850789E+01 -0.157062785198E+01 -0.156208570868E+01 -0.155028911375E+01
 -0.153515364155E+01 -0.151660361843E+01 -0.149457222225E+01 -0.146900146985E+01 -0.143984209735E+01
 -0.140705333891E+01 -0.137060261286E+01 -0.133046512415E+01 -0.128662339521E+01 -0.123906673698E+01
 -0.118779067443E+01 -0.113279633967E+01 -0.107408984790E+01 -0.101168166936E+01 -0.945586011127E+00
 -0.875820220958E+00 -0.802404224044E+00 -0.725360002023E+00 -0.644711121179E+00 -0.560482316875E+00
 -0.472699135758E+00 -0.381387640997E+00 -0.286574181569E+00 -0.188285229466E+00 -0.865472903808E-01
  0.186131020524E-01  0.127169292299E+00  0.000000000000E+00  0.000000000000E+00  0.000000000000E+00
  0.000000000000E+00  0.000000000000E+00  0.000000000000E+00  0.000000000000E+00  0.000000000000E+00
  0.000000000000E+00  0.000000000000E+00  0.000000000000E+00  0.000000000000E+00  0.000000000000E+00
  0.000000000000E+00  0.000000000000E+00  0.000000000000E+00  0.000000000000E+00  0.000000000000E+00
  0.000000000000E+00  0.000000000000E+00  0.000000000000E+00  0.000000000000E+00  0.000000000000E+00
  0.000000000000E+00  0.000000000000E+00  0.000000000000E+00  0.000000000000E+00  0.000000000000E+00
  0.000000000000E+00  0.000000000000E+00  0.000000000000E+00  0.000000000000E+00  0.000000000000E+00
  0.000000000000E+00  0.000000000000E+00  0.000000000000E+00  0.000000000000E+00  0.000000000000E+00
  0.000000000000E+00  0.000000000000E+00  0.000000000000E+00  0.000000000000E+00  0.000000000000E+00
  0.000000000000E+00  0.000000000000E+00  0.000000000000E+00  0.000000000000E+00  0.000000000000E+00
  0.000000000000E+00
 End of Dataset
