kptopt   -29
ndivk    30 30 1 30 30 30 1 30 30 30 1 30 30 30 1 30 30 30 1 30 30 30 1 30 30 1 30 1 30
kptbounds
   0.0000000000   0.0000000000   0.0000000000   # GAMMA
   0.0000000000   0.5000000000   0.0000000000   # X
   0.1666666667   0.3333333333   0.2500000000   # k
   0.3333333333   -0.1666666667   0.2500000000   # k'
   0.5000000000   0.0000000000   0.0000000000   # X'
   0.5000000000   -0.5000000000   0.0000000000   # M'
   0.3333333333   -0.1666666667   0.2500000000   # k'
   0.1666666667   0.3333333333   0.2500000000   # k
   0.5000000000   0.5000000000   0.0000000000   # M
   0.0000000000   0.0000000000   0.0000000000   # GAMMA
   0.1666666667   0.3333333333   0.2500000000   # k
   0.3333333333   -0.1666666667   0.2500000000   # k'
   0.0000000000   0.0000000000   0.0000000000   # GAMMA
   0.0000000000   0.0000000000   0.5000000000   # Z'
   0.3333333333   -0.1666666667   0.2500000000   # k'
   0.1666666667   0.3333333333   0.2500000000   # k
   0.0000000000   0.0000000000   0.5000000000   # Z
   0.0000000000   0.5000000000   0.5000000000   # R
   0.1666666667   0.3333333333   0.2500000000   # k
   0.3333333333   -0.1666666667   0.2500000000   # k'
   0.5000000000   0.0000000000   0.5000000000   # R'
   0.5000000000   -0.5000000000   0.5000000000   # A'
   0.3333333333   -0.1666666667   0.2500000000   # k'
   0.1666666667   0.3333333333   0.2500000000   # k
   0.5000000000   0.5000000000   0.5000000000   # A
   0.0000000000   0.0000000000   0.5000000000   # Z
   0.0000000000   0.5000000000   0.0000000000   # X
   0.0000000000   0.5000000000   0.5000000000   # R
   0.5000000000   0.5000000000   0.0000000000   # M
   0.5000000000   0.5000000000   0.5000000000   # A
# Spin-flip operation (Option 2) in submitted structure 'POSCAR' real-space fractional basis: 0.00000000 1.00000000 0.00000000 -1.00000000 0.00000000 0.00000000 0.00000000 0.00000000 1.00000000
