# MnF2 (P4_2/mnm, 4-mmm / 2121-P-d, case 12 tP1-2121), altermagnetic band structure.
# Dataset 1: SCF density. Dataset 2: NSCF band structure along the
# AlterSeeK-generated k|k' path (KPOINTS_alter_abinit).
#
# k-mesh, nband, U/J, and smearing are carried over from the existing
# VASP/QE setups for this same compound (INCAR, QE/scf.in) so the three
# examples are directly comparable. The k-path is byte-identical to the
# VASP KPOINTS_alter / QE KPOINTS_alter_qe of this case (flip operation
# C4- [0 0 1]).

# iomode 0: force plain Fortran binary I/O. This cluster's ABINIT build
# defaults to NetCDF output, but its NetCDF library lacks MPI-IO support,
# which aborts immediately on a multi-rank run otherwise.
iomode 0

ndtset 2

# --- Dataset 1: SCF ---
kptopt1  1
ngkpt1   7 7 10
nshiftk1 1
shiftk1  0.0 0.0 0.0
nstep1   100
toldfe1  1.0d-9
prtden1  1

# --- Dataset 2: NSCF band structure (AlterSeeK k|k' path) ---
iscf2     -2
getden2   -1
nstep2    100
tolwfr2   1.0d-8

kptopt2   -29
ndivk2    30 30 1 30 30 30 1 30 30 30 1 30 30 30 1 30 30 30 1 30 30 30 1 30 30 1 30 1 30
kptbounds2
  0.0000000000   0.0000000000   0.0000000000   # GAMMA
  0.0000000000   0.5000000000   0.0000000000   # X
  0.1666666667   0.3333333333   0.2500000000   # k
  0.3333333333   -0.1666666667   0.2500000000   # k'
  0.5000000000   0.0000000000   0.0000000000   # X'
  0.5000000000   -0.5000000000   0.0000000000   # M'
  0.3333333333   -0.1666666667   0.2500000000   # k'
  0.1666666667   0.3333333333   0.2500000000   # k
  0.5000000000   0.5000000000   0.0000000000   # M
  0.0000000000   0.0000000000   0.0000000000   # GAMMA
  0.1666666667   0.3333333333   0.2500000000   # k
  0.3333333333   -0.1666666667   0.2500000000   # k'
  0.0000000000   0.0000000000   0.0000000000   # GAMMA
  0.0000000000   0.0000000000   0.5000000000   # Z'
  0.3333333333   -0.1666666667   0.2500000000   # k'
  0.1666666667   0.3333333333   0.2500000000   # k
  0.0000000000   0.0000000000   0.5000000000   # Z
  0.0000000000   0.5000000000   0.5000000000   # R
  0.1666666667   0.3333333333   0.2500000000   # k
  0.3333333333   -0.1666666667   0.2500000000   # k'
  0.5000000000   0.0000000000   0.5000000000   # R'
  0.5000000000   -0.5000000000   0.5000000000   # A'
  0.3333333333   -0.1666666667   0.2500000000   # k'
  0.1666666667   0.3333333333   0.2500000000   # k
  0.5000000000   0.5000000000   0.5000000000   # A
  0.0000000000   0.0000000000   0.5000000000   # Z
  0.0000000000   0.5000000000   0.0000000000   # X
  0.0000000000   0.5000000000   0.5000000000   # R
  0.5000000000   0.5000000000   0.0000000000   # M
  0.5000000000   0.5000000000   0.5000000000   # A

# --- Cell: from POSCAR (case12_POSCAR, MnF2 rutile) ---
acell  4.8736  4.8736  3.3000  Angstrom
rprim
   1.0  0.0  0.0
   0.0  1.0  0.0
   0.0  0.0  1.0

natom  6
ntypat 2
znucl  25 9
typat  1 1 2 2 2 2

xred
   0.0000000000   0.0000000000   0.0000000000
   0.5000000000   0.5000000000   0.5000000000
   0.3046400000   0.3046400000   0.0000000000
   0.8046400000   0.1953600000   0.5000000000
   0.1953600000   0.8046400000   0.5000000000
   0.6953600000   0.6953600000   0.0000000000

nband 48

# --- Magnetism: collinear AFM, matches VASP MAGMOM = 5 -5 4*0 ---
nsppol 2
spinat
   0.0 0.0  5.0
   0.0 0.0 -5.0
   0.0 0.0  0.0
   0.0 0.0  0.0
   0.0 0.0  0.0
   0.0 0.0  0.0

# --- DFT+U on Mn 3d, matches VASP LDAUTYPE=2 U=3.0 eV J=0 / QE HUBBARD U=3.0 ---
# usepawu 1 (FLL double counting) is the closest ABINIT analog to VASP's
# Dudarev (LDAUTYPE=2); not a bit-for-bit equivalent formulation.
usepawu 1
lpawu    2   -1
upawu  3.0   0.0 eV
jpawu  0.0   0.0 eV

# --- Smearing, matches QE's gauss/degauss=1.0d-2 Ry = 0.005 Ha ---
occopt 7
tsmear 0.005

# --- Cutoffs: not independently converged; chosen comfortably above the
# JTH v1.1 standard-accuracy hints for Mn/F. ---
ecut       30
pawecutdg  60

pp_dirpath "./"
pseudos "Mn.xml, F.xml"
